49 2
1
1
1
2
1
1
1
8
9
5
4
4
5
7
13
16
7
16
13
3
7
18
11
19
23
19
25
25
24
25
1
6
30
11
33
3
29
38
21
40
30
1
8
34
5
1
35
12
29
49 17
1
1
2
2
1
4
2
2
2
6
8
1
4
12
6
9
3
2
5
5
2
2
2
2
3
13
24
14
15
24
12
20
6
21
15
29
36
13
6
19
39
42
25
36
37
26
12
12
24
49 25
1
2
1
4
3
1
4
6
1
2
9
10
4
12
4
15
11
3
9
6
15
21
7
24
7
4
8
26
28
17
24
8
11
19
6
10
17
1
6
39
28
27
38
40
30
8
1
5
3
49 14
1
1
2
4
4
6
5
7
6
2
1
5
1
1
5
16
11
7
17
18
13
6
1
17
18
20
1
7
24
19
25
31
6
20
34
5
31
31
39
23
41
4
34
37
37
27
34
23
8
49 5
1
2
1
1
5
5
4
3
1
3
6
7
2
1
12
16
10
12
1
18
21
18
5
4
20
21
23
18
9
1
19
8
12
18
8
19
14
24
7
33
30
5
26
44
26
25
10
45
15
49 13
1
2
2
2
4
2
5
2
8
4
2
4
13
13
2
1
8
3
12
11
9
2
2
11
10
5
20
20
1
20
11
26
3
21
31
6
20
33
26
31
1
2
21
5
45
31
3
30
45
49 17
1
2
2
1
3
1
4
6
5
7
11
5
13
4
1
2
8
7
16
18
2
13
2
4
12
20
13
19
26
5
22
7
17
7
21
12
25
18
39
32
15
27
41
31
45
22
21
40
17
49 9
1
2
2
1
1
6
2
7
2
2
9
7
2
12
13
3
15
17
16
18
9
8
14
6
21
18
6
17
18
17
12
19
29
5
35
33
36
7
26
28
1
8
5
21
43
30
11
46
43
49 40
1
2
3
1
3
5
1
4
3
10
8
6
4
3
7
6
1
10
12
1
12
16
8
24
22
14
24
6
23
13
3
26
8
33
17
9
25
38
29
36
15
17
36
4
36
25
44
47
39
49 38
1
2
1
3
1
2
4
2
4
1
4
5
13
9
7
3
16
8
7
13
6
16
12
21
5
3
19
2
18
4
18
6
6
24
13
14
28
28
17
15
25
1
27
13
32
45
37
44
33
