100000 16 28
100000
404 6 9
119 12 0
251 10 4
7 9 14
278 10 10
411 11 11
316 5 5
309 16 0
401 10 8
499 9 18
266 16 9
39 1 21
105 12 2
173 13 25
117 6 14
460 7 5
406 1 25
400 15 12
329 6 3
145 11 0
415 6 26
99 6 27
464 13 17
22 7 24
81 1 10
220 16 15
483 2 3
335 3 28
278 7 12
125 11 16
250 16 3
294 14 12
365 0 23
333 10 18
433 15 4
341 2 28
481 2 5
403 2 4
131 15 26
56 10 27
454 4 9
261 5 12
162 1 5
386 11 15
338 5 9
485 5 18
97 8 26
472 6 9
198 14 22
123 11 2
211 5 27
487 4 14
416 12 16
288 10 27
203 5 4
40 9 22
393 13 17
369 8 27
103 15 18
286 6 17
153 3 16
343 6 7
450 0 5
60 0 8
488 12 26
288 2 0
435 12 4
417 14 21
397 12 9
320 9 12
325 3 3
144 9 27
198 9 6
307 6 18
119 11 9
398 16 23
340 5 12
341 12 12
499 13 4
249 12 22
16 15 3
64 3 14
281 8 24
62 11 25
367 2 1
72 13 1
178 2 15
242 1 1
138 1 12
263 4 2
320 8 27
11 4 5
303 16 15
87 0 6
112 12 22
4 8 6
292 14 22
314 5 27
113 12 7
107 1 20
72 0 10
32 5 0
262 16 2
58 1 13
473 16 5
251 8 9
392 5 27
496 15 25
259 6 4
53 10 2
117 6 4
229 7 19
85 10 9
432 4 11
261 3 2
151 7 16
84 14 9
12 4 17
177 7 11
334 12 4
489 15 21
21 0 3
380 10 19
464 16 26
272 6 24
486 9 3
82 12 10
413 13 22
457 4 20
250 1 19
303 6 12
356 13 6
341 8 6
46 0 12
405 0 8
476 12 18
31 3 4
465 16 9
467 2 13
422 8 3
284 8 2
313 11 14
97 14 14
295 0 13
292 16 1
446 9 27
347 11 23
109 10 14
170 16 24
304 8 20
90 1 15
218 3 13
31 2 0
20 2 3
257 16 19
425 16 25
143 6 22
49 11 20
55 16 28
17 13 22
328 9 6
445 10 22
314 15 12
176 15 7
327 7 9
496 12 20
320 2 7
272 14 12
40 1 22
79 13 11
55 4 20
238 16 25
140 1 24
199 4 22
435 3 8
278 4 23
189 10 6
331 0 20
214 11 28
358 2 3
19 11 15
277 7 28
408 2 21
490 16 0
262 16 14
393 11 1
150 13 4
489 13 4
37 5 21
169 16 23
80 3 8
494 14 9
415 16 0
252 1 7
434 5 25
150 12 7
443 3 18
154 13 18
173 1 17
15 12 15
82 8 9
482 6 6
94 3 22
327 14 16
96 14 0
169 8 3
481 1 4
451 11 20
494 14 25
322 11 17
12 13 9
394 9 9
312 14 21
393 6 22
224 12 24
441 12 19
98 10 3
34 2 20
484 7 19
75 4 26
114 14 28
121 12 15
56 7 14
464 15 21
392 5 0
34 10 14
426 6 7
434 8 4
390 14 11
422 12 17
234 10 28
469 10 12
153 9 25
319 15 8
246 12 4
392 11 15
455 1 3
66 10 25
435 11 11
33 16 11
86 9 7
160 8 27
368 9 13
279 1 18
21 5 7
244 14 28
232 14 26
59 14 0
366 8 14
90 10 25
412 8 2
422 7 8
75 3 21
65 4 1
235 6 12
496 4 18
95 2 11
162 11 7
31 11 21
252 1 13
160 7 13
335 10 17
373 11 5
94 13 11
162 8 4
493 16 1
404 16 18
456 6 7
62 4 16
114 5 15
348 10 24
190 7 9
10 6 25
94 10 13
386 16 24
150 13 28
406 13 10
58 12 7
229 9 26
27 13 11
306 2 28
470 13 5
313 16 17
87 7 14
159 13 6
42 9 18
218 1 14
102 9 26
26 10 11
13 10 20
466 6 14
398 0 3
33 14 0
62 12 8
62 16 0
45 6 11
433 11 17
167 14 24
184 1 8
363 1 2
301 6 23
421 6 22
124 16 27
31 14 8
474 8 11
382 3 8
145 1 19
210 5 26
17 16 22
194 4 23
111 1 0
222 0 0
76 4 18
340 16 3
293 16 21
449 13 20
143 10 16
475 8 22
460 6 16
240 2 19
351 7 17
475 16 10
423 10 12
238 10 18
76 16 23
404 12 0
372 8 11
173 9 5
204 9 10
260 5 25
430 11 17
277 15 15
93 13 6
479 5 9
17 8 18
112 6 8
352 12 20
287 10 26
203 9 2
235 16 11
192 5 20
146 16 15
379 7 12
216 14 21
246 11 5
122 1 2
183 0 10
207 16 3
344 15 24
171 12 1
266 5 8
312 8 9
400 1 21
440 3 6
74 4 7
206 14 1
149 8 28
294 10 19
481 1 10
24 6 9
127 14 8
448 13 6
213 10 9
181 7 1
401 3 4
159 8 3
135 6 16
435 11 18
179 10 25
84 1 5
93 14 28
70 15 28
59 3 20
38 12 26
132 12 12
280 10 6
298 6 2
497 7 12
42 12 18
381 15 26
118 6 4
322 14 6
295 11 19
168 15 16
166 10 21
310 0 17
64 14 17
309 7 25
397 16 2
299 9 26
163 9 26
337 14 3
267 4 26
167 4 26
329 16 15
381 4 1
225 13 23
219 1 6
436 5 24
444 12 24
157 5 5
53 2 12
324 2 2
131 15 19
33 16 26
129 13 2
72 3 9
375 9 27
131 6 13
404 2 8
156 2 3
310 10 10
361 0 13
498 3 4
54 9 13
100 13 9
306 11 21
496 2 6
17 11 24
123 11 5
258 15 6
119 5 25
298 14 7
51 0 18
106 13 13
109 5 24
303 2 19
1 4 2
104 0 13
297 2 23
228 8 6
31 3 22
151 8 4
481 4 8
383 7 28
405 7 1
321 13 24
309 10 26
5 16 18
161 15 1
58 16 5
40 12 22
35 8 17
154 4 20
6 7 21
155 15 25
405 13 27
349 4 23
144 11 2
413 6 4
32 16 6
293 12 15
457 11 26
87 12 14
364 16 17
296 13 20
36 7 27
224 16 20
383 11 14
487 10 19
118 15 9
415 8 7
174 11 28
34 0 14
188 11 13
166 0 23
233 8 1
448 11 6
418 12 14
102 2 23
334 3 23
493 14 15
303 10 23
359 6 24
420 5 7
394 4 6
26 7 26
132 0 14
58 10 27
98 12 13
164 10 8
488 9 28
186 10 22
36 5 28
7 9 2
167 2 7
443 12 7
399 1 25
367 7 0
222 0 7
47 8 2
103 8 7
383 11 14
478 13 0
286 2 0
234 10 11
463 14 0
411 2 14
313 15 15
386 8 20
107 12 7
165 9 23
67 1 14
420 7 4
9 12 17
73 14 10
273 5 16
329 5 4
435 3 24
150 5 11
79 12 25
477 2 1
17 0 4
153 11 16
31 2 12
140 0 4
212 12 4
457 2 8
217 2 17
383 12 17
319 3 0
67 12 0
497 13 23
435 6 13
57 16 2
273 9 21
428 10 23
358 15 1
332 11 26
28 4 4
39 14 14
417 9 19
461 10 1
287 5 19
312 14 9
187 13 9
228 0 15
153 8 2
288 9 11
82 4 23
283 7 8
311 9 28
381 8 22
62 15 16
17 4 17
349 13 5
97 1 25
462 0 4
164 3 28
188 10 12
470 3 3
465 8 27
31 1 0
485 0 13
165 15 14
390 0 22
336 16 2
470 1 4
316 7 11
80 4 10
316 10 12
337 4 28
305 7 23
307 2 20
341 4 7
390 5 22
280 12 2
234 15 11
429 5 7
326 3 18
381 6 25
93 0 15
161 2 2
104 2 23
231 10 5
372 13 8
141 3 23
25 15 15
389 10 19
428 2 17
245 15 26
224 15 1
89 14 8
58 3 24
52 14 21
456 3 25
205 11 3
194 4 23
454 1 16
123 9 5
18 5 12
17 8 12
101 9 2
165 1 19
479 8 4
396 3 27
400 2 17
30 12 2
282 16 16
197 13 10
494 9 3
77 6 16
198 5 14
123 16 18
198 13 27
398 7 17
249 8 8
373 2 21
32 6 2
136 5 18
391 11 6
38 0 18
126 12 21
61 8 8
61 0 22
271 9 26
345 2 21
221 7 14
1 15 3
394 4 3
186 4 12
167 15 24
453 11 1
232 14 22
35 1 17
348 10 5
408 9 3
90 8 1
76 14 10
393 0 6
230 13 21
407 7 0
220 13 6
151 3 8
110 4 1
256 8 12
62 1 15
444 10 8
402 14 24
476 10 19
497 16 0
147 4 0
61 16 19
358 0 27
265 5 18
328 7 22
474 15 8
406 2 18
291 0 3
276 3 14
162 14 6
356 3 10
345 11 17
421 0 10
391 4 2
234 16 28
131 9 25
228 16 27
412 0 1
369 7 5
99 14 7
301 1 14
140 8 14
390 10 26
318 5 10
49 4 3
214 4 19
391 4 8
462 5 13
377 9 23
14 1 4
38 7 6
5 14 11
31 1 13
334 16 1
29 2 19
411 6 8
288 14 26
20 6 16
463 10 4
182 6 23
377 12 23
24 0 13
268 11 2
282 16 26
86 9 0
454 7 24
478 2 0
68 13 1
156 5 22
292 15 3
280 1 1
487 6 13
208 0 24
128 6 28
367 4 11
412 7 27
29 12 7
334 11 24
254 1 18
143 1 9
217 3 9
256 0 3
360 4 19
190 7 4
266 2 7
124 15 8
257 0 15
102 5 25
334 6 20
489 8 14
136 9 12
223 8 10
38 14 11
150 3 6
138 6 27
388 4 5
247 14 8
116 1 9
361 14 3
187 5 11
492 13 23
322 4 11
443 4 23
47 11 15
198 6 23
412 11 8
255 1 15
40 12 7
109 7 23
23 2 9
385 0 22
392 5 19
363 0 3
154 1 5
188 3 18
352 14 13
340 0 0
318 13 0
324 2 20
165 9 27
496 16 21
277 7 28
314 8 6
36 11 1
28 12 1
329 6 5
293 2 16
95 14 6
370 5 23
202 9 28
230 5 21
492 6 14
101 11 18
256 9 19
47 8 4
376 13 16
493 15 17
312 13 19
166 15 4
156 13 2
63 13 22
56 10 7
148 6 5
34 7 28
98 10 17
83 1 12
215 12 28
453 14 20
250 5 22
282 8 21
77 9 26
215 6 15
432 12 9
377 2 1
82 14 28
155 7 25
376 7 11
77 13 12
382 1 19
372 11 19
307 1 8
390 13 27
372 15 18
154 13 0
358 7 6
320 5 19
351 1 11
358 12 2
442 12 1
247 0 11
408 6 27
126 7 1
424 11 0
438 4 3
227 9 6
432 2 20
90 3 10
270 7 14
80 15 22
118 14 13
497 10 26
358 7 24
437 3 12
158 16 4
438 4 10
388 13 22
221 1 28
30 5 16
369 6 1
135 0 8
373 10 25
226 15 6
288 0 17
207 2 25
25 12 24
5 16 26
146 7 28
222 11 25
186 14 5
169 5 0
31 7 18
241 11 25
484 3 7
230 10 13
482 11 8
399 6 18
125 4 10
488 10 6
387 15 3
296 2 16
363 2 14
139 14 15
94 11 7
364 0 14
394 8 28
186 6 21
437 8 11
6 7 9
205 9 6
23 2 12
51 11 12
473 14 13
55 3 26
205 2 14
431 16 24
33 10 28
368 2 16
44 1 9
353 3 16
141 10 18
452 7 25
271 7 23
378 12 14
418 3 15
91 15 7
165 6 8
286 14 7
397 14 26
166 5 2
146 7 26
422 12 20
90 9 12
94 6 21
471 9 24
59 5 28
95 4 18
8 11 23
284 10 20
491 10 18
32 4 27
205 11 15
410 13 18
224 15 27
286 7 27
38 8 14
396 6 2
233 8 3
100 9 4
27 0 11
432 13 16
378 6 5
237 12 3
119 3 5
417 9 10
233 13 11
4 16 26
123 2 25
38 16 7
140 15 14
115 8 12
495 13 22
386 8 0
8 5 2
436 10 13
246 0 13
232 3 17
418 6 20
323 1 4
409 12 21
223 7 25
289 2 25
368 6 27
88 10 12
384 4 26
449 5 24
496 1 4
251 7 9
424 16 14
75 1 21
492 16 21
73 13 3
496 8 5
127 11 9
144 10 8
228 3 11
149 6 27
478 0 22
325 4 18
169 6 21
373 12 21
110 1 11
463 9 26
76 0 28
228 1 23
344 6 12
466 14 17
237 13 23
205 13 6
206 16 10
296 16 19
300 4 1
65 11 16
157 0 19
16 15 21
415 11 7
49 12 24
41 12 5
251 5 19
444 4 3
454 11 6
222 16 5
142 5 22
23 1 24
224 4 27
12 12 27
473 8 0
390 1 10
297 3 11
130 4 17
310 11 10
12 0 10
107 1 25
17 5 9
78 10 13
194 7 6
231 0 15
10 5 28
167 2 10
432 16 8
336 16 8
466 16 10
239 6 20
451 11 17
159 14 15
53 6 2
81 0 23
441 0 1
424 8 17
78 8 2
427 2 15
186 2 20
189 11 20
320 3 0
337 9 22
338 5 24
271 11 21
456 8 9
313 5 25
286 6 11
481 8 27
338 9 17
490 8 25
132 10 26
90 13 12
440 15 13
324 5 13
455 11 26
494 6 9
470 6 3
375 1 24
141 5 16
237 15 17
247 11 11
352 6 15
203 14 18
145 9 0
65 12 25
269 16 20
120 14 20
442 2 1
393 10 11
125 11 3
369 11 23
373 9 9
399 13 28
214 4 25
426 0 22
454 2 21
387 13 5
229 14 12
169 3 8
110 5 7
383 7 4
497 3 0
204 6 11
89 9 27
216 15 28
291 13 21
284 11 20
153 10 9
68 11 13
278 10 20
117 16 19
182 7 3
108 2 19
314 16 8
469 12 2
450 2 18
418 16 13
387 16 1
99 2 23
450 1 25
76 10 27
173 4 1
202 10 6
287 4 11
371 8 27
263 6 23
138 8 13
256 9 8
241 12 17
260 11 26
361 6 12
381 14 13
179 9 4
64 4 20
97 13 16
282 4 17
440 14 24
294 4 8
427 8 1
386 11 15
34 1 19
418 5 7
62 9 24
112 3 1
114 11 19
279 12 28
231 10 7
293 16 16
467 4 25
346 1 16
220 2 22
211 3 9
477 10 12
126 10 8
218 15 21
251 0 6
31 13 27
326 8 25
272 4 1
322 8 28
464 4 1
426 1 13
253 8 20
282 2 4
274 2 6
26 2 28
377 0 26
263 1 9
466 16 26
377 5 15
450 8 15
407 13 0
480 6 16
185 3 8
119 3 17
127 3 24
339 12 11
378 2 11
41 11 1
180 3 8
200 2 22
155 12 1
21 11 19
398 5 13
202 4 12
266 11 5
267 10 5
127 12 2
58 2 2
93 11 27
72 6 28
464 2 14
8 10 12
219 2 2
309 12 13
88 16 12
348 8 18
320 6 24
304 5 21
39 1 22
403 15 1
310 12 5
240 0 21
470 10 22
401 1 3
323 14 6
380 6 19
497 6 2
364 11 2
218 6 3
23 14 24
406 15 26
239 7 15
427 0 10
235 12 14
103 7 0
116 13 12
100 10 10
22 2 12
312 5 4
12 13 20
110 6 13
226 5 25
154 8 24
333 16 28
111 11 15
61 2 18
364 2 21
213 8 7
483 7 15
334 15 1
32 12 6
121 1 25
88 11 10
4 15 8
371 4 19
172 10 13
427 4 1
382 2 5
152 1 16
278 0 14
384 7 18
369 10 16
55 1 25
338 5 1
376 5 12
291 5 25
327 13 10
341 3 22
363 15 23
474 0 7
245 7 17
338 12 5
271 13 13
367 2 19
31 16 5
407 11 10
50 5 11
114 5 17
465 5 1
315 2 19
156 14 7
118 14 20
76 7 20
245 4 27
434 7 11
269 16 22
440 2 18
55 3 24
442 2 9
104 14 11
187 7 9
178 6 21
435 0 6
343 3 18
2 10 3
385 5 27
318 13 9
312 3 8
489 9 18
257 13 22
15 5 24
435 0 17
403 15 14
361 16 3
324 7 15
74 3 15
398 11 26
207 1 18
458 6 5
140 10 10
33 2 22
233 13 28
80 2 8
4 6 7
423 13 28
160 16 21
299 10 0
382 4 22
50 2 13
192 15 18
167 8 6
474 6 27
362 1 17
170 7 7
410 11 0
279 12 0
409 2 0
398 2 13
169 14 3
118 4 26
420 5 20
3 10 16
244 14 1
38 0 8
302 1 26
290 2 7
368 8 25
371 6 0
221 8 14
215 11 6
237 16 4
383 2 8
1 16 22
177 5 0
98 14 2
32 6 0
234 10 13
7 4 17
356 2 7
10 4 28
111 7 27
109 10 12
252 16 12
363 3 17
99 8 21
365 15 27
321 10 25
80 11 3
228 6 11
31 0 14
449 13 28
224 3 20
366 9 2
474 4 4
465 12 11
237 4 7
497 9 25
219 13 12
353 9 7
229 15 21
130 14 23
424 16 26
263 1 10
158 10 11
90 2 9
492 11 7
154 10 1
439 15 4
89 13 7
187 12 21
10 2 14
144 4 0
74 11 24
215 1 23
197 12 7
89 16 14
488 10 12
384 11 2
160 14 18
222 9 26
199 15 16
70 7 16
277 14 5
339 13 12
486 16 0
324 14 14
318 9 5
303 0 11
83 7 9
121 5 17
81 12 28
61 12 22
420 12 23
332 10 0
390 4 22
350 9 3
310 15 7
155 5 22
294 16 23
159 16 13
478 5 7
357 10 9
388 0 13
89 2 16
426 15 24
300 12 19
355 6 17
414 0 1
278 0 12
356 9 9
393 3 25
249 5 26
352 0 7
431 3 23
375 7 1
367 12 17
355 9 11
464 2 11
170 0 0
332 15 18
194 2 6
355 15 28
204 12 0
228 15 9
49 14 17
448 5 1
449 0 3
413 2 14
461 6 21
275 16 9
165 8 26
319 6 18
308 7 27
432 11 10
347 8 3
476 12 9
197 7 16
40 0 27
430 2 26
47 0 25
386 1 25
416 11 21
463 4 28
276 14 4
7 3 20
168 7 2
66 15 1
411 9 14
460 3 27
64 8 17
116 5 24
236 12 26
0 10 12
161 10 22
229 12 24
36 4 28
140 11 19
285 13 1
245 9 0
373 3 0
131 9 13
96 10 7
17 14 2
241 0 2
398 8 17
85 3 20
468 7 25
253 3 28
452 3 18
490 1 20
478 11 7
139 3 24
392 12 26
208 16 22
291 5 6
489 9 2
271 8 13
462 10 22
276 10 17
264 15 3
203 1 27
50 12 20
474 11 26
251 6 6
215 0 20
163 5 12
11 7 15
235 13 13
480 1 14
367 15 11
63 12 25
324 5 20
197 6 16
491 12 17
200 10 4
445 12 26
483 14 5
248 4 6
61 3 11
190 13 7
298 4 16
91 16 6
406 2 5
291 0 5
38 7 28
384 10 6
272 7 20
143 11 22
41 2 21
132 9 0
30 0 9
419 6 7
401 7 13
108 6 4
294 12 23
430 0 14
88 16 26
366 10 14
259 16 21
21 3 24
20 13 27
224 10 25
161 6 26
433 14 3
327 10 17
469 16 0
167 8 27
145 3 3
210 4 9
109 4 17
159 1 19
377 1 26
380 4 26
165 9 25
473 4 26
44 11 9
233 8 22
103 14 10
281 9 8
63 0 21
4 16 0
126 4 14
457 6 25
62 6 15
282 13 7
180 8 11
347 5 15
148 1 22
409 9 21
159 2 19
32 2 20
36 8 13
373 16 28
395 16 18
277 15 6
437 11 8
476 15 17
172 5 22
471 2 10
248 4 11
141 5 10
114 5 10
26 16 2
222 12 18
382 2 3
418 9 4
289 5 7
389 11 27
49 11 2
33 0 22
167 3 22
148 3 3
134 16 9
27 5 18
286 4 27
73 5 7
492 11 22
467 11 19
134 9 7
100 1 0
7 3 25
315 2 24
242 2 5
367 1 26
319 10 23
425 16 7
123 10 20
140 9 24
388 15 2
372 3 24
268 3 14
359 8 5
254 16 10
469 2 0
150 14 7
458 13 6
27 4 16
437 5 21
317 0 14
260 15 0
221 9 28
349 6 13
256 13 18
362 10 11
196 15 4
51 7 10
349 0 10
31 11 14
89 12 5
427 2 3
381 15 17
303 14 7
249 10 27
488 13 26
151 12 19
45 0 0
302 4 23
369 13 20
389 8 1
421 14 22
97 0 26
477 4 22
314 6 11
279 9 20
437 4 3
135 15 26
244 15 5
133 4 13
78 6 18
195 5 13
370 11 18
37 13 22
150 2 19
234 8 23
350 8 9
243 1 22
243 6 10
44 12 11
78 3 28
208 13 4
44 15 10
276 11 25
43 15 12
91 6 15
43 0 16
215 2 1
373 2 0
48 10 26
427 1 16
289 12 8
241 6 24
226 11 22
426 10 16
26 10 23
468 7 6
1 16 28
495 6 1
332 8 9
252 12 6
120 9 4
335 10 18
44 12 5
112 16 2
44 5 21
399 4 19
378 14 18
230 4 0
399 7 22
117 16 10
488 10 28
7 2 23
70 15 24
244 2 24
488 10 23
298 10 1
121 13 26
334 0 7
417 0 14
375 4 24
299 13 28
467 16 26
254 1 22
322 13 12
73 14 27
488 15 24
191 8 22
190 0 7
216 5 22
146 9 10
38 5 10
340 3 0
109 2 2
140 8 25
221 7 1
62 4 0
52 12 19
197 5 17
480 0 3
150 12 23
6 0 16
450 2 27
497 15 2
272 6 25
282 5 28
489 8 25
294 16 23
53 2 28
368 8 12
107 11 15
397 0 19
473 4 7
165 14 25
356 6 25
342 4 6
250 0 2
50 14 25
182 1 1
277 11 6
42 15 24
310 1 17
23 5 25
489 5 2
404 4 15
111 14 2
372 16 15
346 5 7
86 5 1
277 13 16
436 6 9
247 13 23
345 6 15
313 15 22
162 2 12
316 11 6
110 7 8
201 4 19
494 6 14
185 3 16
440 16 4
131 2 6
386 2 24
340 11 3
337 0 26
460 8 14
193 6 17
137 12 6
122 2 22
313 14 22
199 2 26
222 1 6
186 14 9
364 11 22
173 3 5
179 0 11
65 5 2
460 9 0
449 5 22
421 1 5
405 8 12
379 13 22
172 1 25
392 14 19
21 6 25
137 16 17
463 4 13
326 4 19
361 13 6
380 13 26
387 1 9
408 7 21
320 13 21
25 7 10
234 6 16
315 5 14
488 15 4
443 0 0
241 12 15
234 1 18
10 1 12
93 13 7
18 16 19
96 0 18
388 10 7
154 7 9
55 16 17
358 11 4
169 16 9
306 7 21
328 4 22
331 1 9
90 10 27
465 7 24
125 14 16
138 0 2
366 12 12
368 11 19
351 10 9
38 8 6
465 16 28
70 2 10
211 3 21
468 6 23
278 9 8
489 7 27
254 7 1
273 0 18
297 12 23
317 16 26
429 14 8
233 14 22
462 7 19
187 5 15
407 6 28
103 4 24
13 16 4
150 13 3
44 8 1
36 15 28
293 1 5
123 14 2
7 15 17
344 11 9
64 0 1
86 13 17
179 8 24
213 5 20
42 3 15
464 4 5
115 3 16
96 7 11
463 10 26
212 5 12
423 7 25
127 4 5
126 10 21
279 6 4
86 14 19
50 13 15
489 13 9
231 9 25
347 14 20
242 14 8
5 8 3
464 11 9
423 2 26
79 12 25
30 13 19
21 0 19
430 12 7
479 0 15
236 13 28
203 5 28
22 11 7
111 0 28
101 10 19
239 7 3
384 13 9
357 11 21
187 4 10
454 11 25
330 15 8
279 8 10
0 2 12
449 5 12
392 10 13
408 14 4
405 7 7
474 9 2
411 9 17
362 7 7
138 1 19
281 5 25
250 5 21
379 14 9
140 8 1
364 16 23
413 13 1
494 12 14
8 14 16
128 5 12
414 15 16
213 16 8
25 7 9
159 10 10
446 8 22
164 1 5
328 13 11
367 9 22
450 14 28
314 3 20
416 4 26
438 7 27
362 7 2
497 6 23
321 4 2
113 3 8
404 11 28
88 10 25
379 12 10
471 11 26
447 15 3
308 9 1
171 15 14
6 5 5
59 9 20
267 11 7
345 5 18
396 13 20
11 13 12
448 16 28
118 16 16
29 15 12
113 4 2
20 1 18
416 13 4
425 12 1
394 10 1
421 10 0
221 6 8
357 8 5
256 11 23
338 0 13
321 2 0
85 16 3
367 9 25
293 1 5
272 7 11
235 13 23
158 13 19
203 10 13
40 11 27
490 8 24
454 9 11
373 10 10
367 4 26
390 16 8
357 10 28
38 4 0
77 10 27
140 11 8
143 9 14
177 5 11
132 16 17
476 16 18
59 4 17
440 8 23
388 12 22
254 12 2
18 12 0
181 3 20
111 14 4
41 5 8
342 11 4
190 7 10
471 14 12
136 3 18
289 14 4
344 2 17
302 6 2
40 0 12
266 2 10
49 4 24
109 8 6
70 0 1
229 11 14
420 14 18
356 7 20
366 4 28
391 1 5
333 12 23
266 15 21
246 12 9
22 4 5
48 2 8
425 14 18
417 9 19
195 7 18
271 12 28
148 7 21
220 1 10
11 13 15
125 6 17
178 2 6
199 5 4
412 2 12
137 11 2
411 14 16
400 16 9
359 11 23
458 2 19
461 11 26
450 12 15
256 3 20
176 14 26
29 13 18
69 9 21
107 10 15
199 7 16
118 8 6
308 8 7
73 1 5
300 1 9
321 5 22
436 13 2
149 2 24
62 1 28
472 5 18
496 13 26
382 9 9
70 16 5
131 6 1
218 5 24
104 4 10
319 6 4
455 11 9
52 8 8
334 14 10
458 3 19
162 8 22
259 10 12
101 7 5
77 2 22
400 16 18
80 11 3
68 7 28
396 16 10
473 7 2
167 6 4
466 7 16
341 5 28
488 14 8
38 10 14
478 11 28
94 9 15
127 14 12
498 5 9
317 3 10
352 0 10
350 6 22
52 10 17
392 7 18
149 1 11
495 5 26
463 3 16
67 0 7
209 4 0
324 7 28
271 1 9
142 4 23
437 7 19
222 15 6
163 5 21
325 6 2
276 10 25
372 15 5
242 10 28
57 9 5
276 0 25
339 8 21
364 4 14
219 5 14
360 3 24
150 8 13
321 13 5
348 3 24
377 7 24
45 3 3
296 10 11
107 6 27
183 5 27
238 16 5
118 1 19
412 2 3
82 5 12
129 3 27
489 12 13
208 4 27
127 16 27
22 14 4
469 14 6
33 6 26
366 15 26
66 16 25
134 16 16
132 10 22
261 2 17
231 2 15
442 4 22
492 6 1
140 15 27
253 5 2
480 15 1
320 15 9
152 11 5
140 14 22
370 14 6
85 16 6
323 16 4
412 16 27
260 10 2
388 8 10
454 9 27
417 15 6
424 0 24
43 11 4
196 10 28
145 4 1
152 0 17
376 9 2
285 5 25
135 0 13
206 16 7
368 0 26
44 5 18
146 5 16
263 16 23
411 2 27
373 13 6
434 6 21
382 3 22
57 14 26
73 16 28
66 10 28
155 7 2
262 4 26
497 3 8
346 16 24
342 0 19
257 12 21
109 10 16
45 6 26
392 16 21
318 5 23
198 11 6
268 3 3
394 5 16
301 7 18
80 7 20
384 2 13
127 8 28
459 15 8
279 14 24
102 6 2
486 3 24
170 10 10
281 5 15
388 6 27
213 11 21
339 15 23
85 15 17
38 6 27
459 1 4
349 1 27
416 5 9
357 5 15
351 0 26
77 14 2
57 0 14
6 6 27
339 14 26
97 15 7
422 15 21
233 7 22
264 16 6
346 5 26
77 16 5
275 14 11
149 14 4
115 13 11
78 16 1
412 8 22
410 13 18
382 13 3
89 16 0
213 15 22
259 10 21
130 0 27
392 12 16
198 4 13
215 16 6
385 11 26
3 3 7
203 12 10
267 7 21
380 5 28
267 10 4
429 8 8
347 2 23
334 8 19
378 3 9
213 1 23
409 8 17
0 10 23
457 6 18
244 16 5
19 12 26
209 1 22
390 16 27
23 13 14
3 6 15
327 5 22
293 12 13
21 7 26
318 10 19
112 14 2
76 15 21
111 4 25
421 14 0
101 0 15
199 6 6
456 15 11
72 9 19
305 2 11
365 10 12
190 4 7
92 12 6
73 15 13
484 15 15
314 11 1
247 6 2
146 7 11
388 11 12
408 11 23
45 8 18
27 9 19
417 10 17
323 8 18
369 16 20
432 16 27
66 11 9
198 16 0
468 10 15
196 11 26
87 0 5
232 5 1
486 16 3
152 6 20
484 13 15
287 7 8
312 14 26
99 15 7
35 3 9
20 0 25
157 13 28
144 15 21
43 10 26
360 12 1
419 8 28
270 5 20
180 2 14
271 8 27
471 10 2
160 4 27
398 2 17
386 3 27
185 14 3
401 2 8
11 8 13
190 7 11
97 2 28
330 5 12
169 4 18
89 7 18
248 3 19
393 12 18
76 11 11
290 11 22
373 1 2
46 14 9
441 8 27
87 16 14
218 2 28
306 8 12
240 4 1
224 2 25
414 11 15
237 6 26
41 12 5
178 14 3
425 1 5
223 6 15
229 8 24
284 16 13
261 15 4
64 16 28
101 3 22
292 3 20
212 0 16
12 5 10
459 11 8
43 14 16
57 6 18
8 3 19
393 7 27
85 4 1
246 14 8
3 8 14
138 0 5
169 7 28
254 5 20
376 4 12
456 11 21
207 0 16
371 12 1
68 9 16
158 9 28
379 7 5
354 0 7
208 0 11
496 1 9
209 7 1
485 15 23
100 12 18
260 0 11
63 5 10
179 8 19
85 16 3
74 3 1
122 13 6
456 16 17
411 13 21
485 2 20
55 10 3
171 10 3
358 12 16
68 16 26
177 6 2
57 2 13
27 0 19
407 1 14
67 10 24
228 5 2
265 16 7
423 16 24
195 3 4
446 14 4
393 2 11
147 6 5
271 15 11
64 4 17
468 0 0
178 14 1
121 3 11
168 4 16
482 6 9
161 3 22
46 0 24
109 14 0
491 1 27
276 6 17
227 9 4
191 0 6
314 14 12
323 14 17
377 5 22
435 6 11
63 13 14
154 2 25
459 15 18
474 9 28
377 11 3
275 5 4
410 10 28
212 14 10
373 10 3
117 12 8
450 9 13
67 8 20
454 2 22
67 15 27
164 5 26
195 9 14
220 8 4
489 14 23
181 1 25
238 6 25
366 6 19
79 1 14
397 14 8
254 9 16
85 7 26
49 12 22
306 12 22
136 0 19
103 6 23
215 12 8
136 6 5
413 16 26
95 5 6
246 9 22
125 15 19
483 11 14
381 12 13
391 16 26
352 2 5
444 15 19
399 7 7
197 3 6
224 12 9
299 15 7
91 2 26
291 7 3
299 2 1
474 13 13
455 9 16
465 15 16
261 14 6
154 8 1
160 16 10
417 5 1
8 15 15
135 8 22
213 11 14
118 3 3
410 14 27
456 3 12
321 15 7
411 0 15
436 16 22
238 4 19
212 16 2
70 2 4
471 7 7
268 14 11
281 13 1
162 10 11
270 2 19
483 13 5
83 14 26
204 6 27
120 15 2
157 13 20
303 3 2
195 8 23
392 13 24
195 9 13
452 0 14
274 7 0
331 5 8
73 14 0
189 9 24
336 3 20
495 6 18
98 13 1
257 10 4
90 8 6
444 2 1
262 6 6
178 13 14
167 15 12
356 0 22
117 0 3
466 6 22
486 16 9
393 11 14
205 9 21
233 9 27
255 10 3
271 11 0
207 13 3
202 14 4
62 1 28
90 13 22
97 6 6
256 2 24
166 8 16
138 4 8
222 2 28
281 14 19
217 0 12
465 6 28
344 8 17
191 9 7
255 8 20
202 15 2
306 10 23
140 13 7
458 1 26
162 3 2
108 10 2
45 12 11
248 10 12
453 3 9
323 9 8
193 0 12
487 12 2
392 11 17
368 2 15
307 14 24
93 13 14
186 4 0
316 9 19
74 10 2
78 2 24
442 8 24
22 6 4
281 5 26
97 16 11
205 5 2
491 7 1
298 10 6
229 10 23
339 15 8
13 9 9
318 11 13
352 11 3
199 5 19
242 8 15
324 13 2
92 6 1
171 5 19
496 10 10
460 5 1
428 8 13
262 16 7
204 0 21
22 6 20
198 4 1
68 8 24
26 15 10
487 9 6
355 10 24
74 9 25
329 15 1
54 16 24
443 16 10
332 12 12
281 14 6
370 15 5
392 9 16
241 11 24
8 3 6
153 16 21
375 9 19
227 12 8
322 1 13
134 11 0
62 10 28
284 11 12
213 2 20
309 13 26
251 9 20
429 2 27
372 7 15
123 10 22
486 0 23
290 9 10
173 2 14
370 12 20
376 13 7
124 7 18
141 2 19
170 15 6
482 1 9
220 10 2
85 15 14
38 14 9
227 15 10
269 13 7
168 6 9
182 9 25
458 1 24
368 10 26
349 13 15
279 6 8
356 8 8
9 14 3
206 0 3
122 8 4
77 15 5
479 6 23
342 5 23
134 5 0
73 10 3
245 14 17
127 10 13
399 8 28
211 11 3
26 15 5
218 7 2
441 2 26
414 13 17
362 9 9
374 16 20
169 0 20
169 12 28
137 11 15
244 13 6
460 14 15
388 3 24
114 4 16
423 16 20
39 9 8
213 4 8
187 4 16
159 5 15
403 3 10
3 4 15
164 2 1
297 5 3
173 2 24
347 12 13
36 16 16
74 2 10
379 4 16
79 6 16
281 4 28
98 2 7
316 4 12
399 0 13
431 14 4
396 1 17
231 14 9
334 2 13
188 1 14
77 11 12
210 7 6
372 13 25
62 3 10
288 15 15
292 12 11
263 14 28
78 8 6
228 1 23
425 15 28
82 16 14
273 8 25
157 8 8
39 13 27
283 3 26
273 9 10
422 14 1
98 15 21
82 12 13
430 7 22
175 16 24
161 0 19
174 9 17
49 10 28
67 8 6
69 0 0
355 13 8
445 15 14
332 16 18
23 11 11
294 1 27
110 3 21
301 5 14
433 9 1
302 0 22
460 16 1
15 16 20
47 13 22
72 11 3
226 3 18
214 10 10
493 5 19
499 2 7
179 16 20
128 16 13
490 3 12
292 16 15
19 0 12
104 9 7
118 2 5
247 3 23
364 14 24
232 2 24
137 2 13
146 11 22
414 10 1
262 10 28
14 7 22
390 11 13
485 5 6
224 12 8
391 9 0
82 1 22
235 1 20
292 16 14
393 0 3
429 11 14
23 0 12
48 12 0
277 11 13
421 5 19
471 12 23
456 0 11
54 16 10
404 14 27
435 2 23
430 13 3
349 9 20
262 6 6
186 8 20
59 2 26
369 4 8
65 0 26
269 12 15
148 8 26
3 14 27
165 16 26
91 10 6
354 12 12
171 15 2
324 8 5
443 2 7
340 10 5
195 3 14
121 16 7
274 16 4
488 10 18
57 13 3
481 12 19
169 11 18
328 5 23
71 6 6
295 5 5
82 12 10
475 1 4
88 13 3
245 4 5
46 2 19
490 15 25
496 12 2
55 13 10
160 16 21
202 6 26
401 15 22
20 10 3
301 11 25
153 13 16
493 8 4
284 11 24
149 6 4
462 12 21
227 5 12
484 2 2
188 3 8
16 10 12
87 4 19
466 0 13
39 2 26
26 6 27
309 11 12
445 10 23
42 8 5
115 14 10
60 5 23
64 15 12
176 11 12
236 0 5
237 6 11
479 7 2
496 0 21
307 16 25
103 10 10
170 13 2
427 8 4
139 0 25
180 15 3
350 0 18
343 11 9
291 3 12
382 0 28
438 12 19
5 4 28
150 13 8
29 6 14
205 11 4
66 1 25
162 8 21
8 3 22
305 10 28
442 14 26
236 0 7
444 14 2
63 7 9
14 5 25
493 15 1
412 5 25
481 5 6
222 4 21
149 11 8
306 14 20
71 12 2
242 6 4
448 3 24
128 15 20
234 4 2
78 16 19
176 11 6
83 2 14
52 14 17
4 16 15
430 0 3
482 11 11
447 16 16
432 0 16
425 13 22
92 5 6
331 0 24
399 2 10
255 10 6
185 9 14
457 11 3
497 5 2
145 9 2
173 8 26
336 13 17
182 4 24
362 1 6
334 10 1
180 8 17
43 15 18
71 3 14
266 0 24
491 8 0
222 12 27
52 12 25
321 3 24
11 7 19
303 9 0
309 0 6
404 10 23
383 4 1
120 16 16
257 11 6
147 1 6
12 0 24
50 1 6
242 12 3
93 0 20
212 7 26
487 7 27
344 1 16
137 9 1
378 5 22
323 14 15
474 13 23
120 16 9
24 15 21
371 11 15
446 2 7
73 12 26
179 4 20
311 7 28
305 3 4
252 7 21
220 1 3
346 5 1
327 2 20
219 0 25
393 14 26
393 4 2
235 9 21
348 10 18
355 0 23
253 9 23
280 16 10
266 4 7
217 5 27
333 4 25
0 4 16
373 0 7
208 1 16
104 15 19
48 12 0
172 6 28
152 0 15
135 12 12
140 7 12
325 14 16
143 9 27
131 3 21
287 4 15
415 12 0
378 4 24
50 3 8
96 13 24
62 2 16
246 0 1
3 3 1
54 15 14
149 13 12
411 9 10
242 1 22
341 13 16
36 6 6
238 7 21
194 10 28
327 12 6
271 12 8
30 4 15
107 16 1
44 8 17
437 8 12
184 4 11
3 3 10
56 2 6
385 2 10
499 11 17
254 6 26
255 6 26
240 12 14
469 3 3
240 12 17
248 11 13
184 15 24
63 14 11
137 2 16
136 9 13
158 16 20
63 15 23
60 1 16
81 2 0
227 11 14
223 10 9
345 2 3
214 4 4
4 6 16
61 7 14
456 8 3
46 1 12
130 3 28
299 15 8
48 0 24
163 16 27
456 4 26
15 4 9
412 12 20
128 7 12
163 14 21
271 5 22
101 0 9
126 3 22
232 6 19
34 11 4
201 7 16
14 13 13
245 0 24
397 7 27
300 9 14
64 6 3
167 3 22
175 7 24
357 10 24
327 11 14
357 16 18
123 11 20
300 9 5
132 6 22
199 5 11
112 8 18
284 12 16
405 5 19
352 15 2
259 2 4
186 15 26
92 10 17
262 13 19
84 11 20
36 10 5
94 9 12
178 5 1
452 8 17
198 0 1
257 10 14
81 14 12
128 10 24
246 12 10
86 4 28
0 5 11
432 1 5
117 7 6
462 14 5
379 15 13
94 4 26
213 16 3
284 0 19
233 11 20
37 10 2
304 6 4
72 8 12
485 15 2
434 12 18
145 2 0
194 16 19
485 7 4
23 15 3
399 9 14
13 14 24
353 3 23
279 15 10
58 14 5
354 2 12
396 6 21
161 16 5
169 13 15
345 4 4
482 1 22
300 0 24
332 6 5
291 0 13
391 4 24
99 13 28
19 4 17
359 14 9
249 13 24
338 4 6
424 6 10
11 7 22
339 13 5
24 10 18
158 13 7
203 15 27
139 16 20
328 12 24
235 13 13
22 13 3
114 14 22
92 11 10
420 5 13
50 9 6
391 3 19
0 9 9
134 2 24
378 9 7
67 10 19
146 15 7
240 12 9
284 10 20
45 6 10
355 10 20
141 4 11
271 1 10
399 14 14
212 3 10
288 15 27
227 11 14
396 1 1
433 5 10
260 8 11
140 14 19
446 1 25
276 4 6
262 14 24
393 0 23
351 10 1
356 13 15
476 0 9
317 11 20
366 8 14
346 15 5
331 4 4
276 2 15
202 3 23
150 6 6
401 16 4
207 13 3
234 9 4
292 11 8
238 2 0
162 3 24
293 0 16
357 12 24
85 10 21
492 13 5
45 5 18
469 1 10
59 13 6
486 2 24
102 14 14
415 5 9
470 1 25
370 14 17
115 6 2
117 7 7
120 14 7
203 16 11
227 0 19
334 10 22
16 8 6
331 12 6
405 2 23
49 15 1
67 13 17
206 6 24
275 4 26
145 2 26
470 8 27
453 10 26
228 11 0
115 3 7
91 8 7
264 8 28
162 10 17
127 2 16
300 16 11
238 8 12
387 7 12
451 12 9
316 0 27
499 10 23
315 11 21
325 7 12
279 7 9
474 13 12
198 5 17
5 4 26
337 13 0
388 16 22
286 8 21
339 10 19
230 0 4
133 5 11
434 15 2
347 13 15
414 14 10
301 7 15
265 15 28
405 10 21
428 13 24
297 7 26
168 5 13
262 7 25
331 3 26
68 16 11
3 11 4
246 4 4
149 0 20
115 0 16
23 6 1
120 7 17
397 16 6
76 11 5
145 11 17
213 12 13
387 12 0
293 12 12
332 4 18
29 5 27
117 16 20
402 3 22
461 8 4
203 13 2
221 12 14
114 15 0
196 6 22
271 6 10
11 1 15
470 1 4
488 10 3
359 12 10
340 11 9
491 7 28
462 10 5
17 16 14
89 13 21
250 15 28
82 0 23
50 1 20
222 14 12
49 1 5
92 8 17
323 5 23
491 12 20
472 10 25
367 14 3
138 6 16
472 14 3
238 7 13
446 13 23
413 7 21
270 10 25
391 11 0
99 9 16
18 11 24
316 1 24
484 4 24
474 8 5
232 8 13
345 6 24
65 6 17
428 3 21
443 8 26
247 9 20
356 7 12
310 12 9
292 8 1
98 9 19
178 12 16
79 10 22
135 3 5
336 13 18
284 16 23
268 13 4
289 5 17
136 13 19
386 16 5
421 10 11
165 12 8
190 8 16
293 5 26
257 2 7
13 13 9
205 13 9
197 9 25
461 8 7
132 5 18
70 13 7
274 5 20
88 10 17
27 11 22
259 5 18
383 0 28
231 5 8
103 16 25
167 14 3
286 16 5
197 11 13
135 1 5
194 2 21
420 10 17
85 8 26
352 13 15
34 4 22
389 13 28
269 8 21
129 1 23
226 3 27
465 15 17
409 3 26
369 2 15
170 0 4
10 9 18
273 7 17
317 16 11
431 15 22
360 13 15
223 3 7
153 8 1
264 11 28
336 4 12
398 7 9
333 6 13
445 15 21
167 1 20
205 2 18
292 5 2
94 9 15
242 4 17
399 4 19
227 3 3
314 15 1
234 15 12
110 14 25
314 9 13
86 3 14
248 1 8
347 5 9
337 3 12
3 9 27
298 14 26
98 6 7
329 16 18
21 11 15
11 16 1
288 15 22
446 12 7
62 2 3
112 5 24
475 10 7
444 7 15
406 0 20
341 5 24
303 1 14
210 14 24
446 13 17
105 16 13
327 10 19
468 13 24
499 8 21
258 6 16
482 5 12
379 10 21
494 7 19
77 11 0
74 16 0
388 14 21
487 11 26
70 9 9
297 4 24
292 2 15
61 14 19
422 14 4
421 9 7
135 14 8
325 7 4
490 1 1
386 6 9
155 4 25
311 12 9
381 1 15
219 15 21
129 16 15
231 4 11
282 3 22
241 0 8
103 0 9
158 0 7
331 11 4
233 2 16
101 10 22
328 5 8
437 14 15
299 9 20
38 6 17
375 4 26
100 1 6
312 6 9
200 8 24
460 16 12
380 2 20
451 13 4
252 1 11
348 12 19
317 6 19
471 14 25
385 4 17
145 0 7
210 4 1
443 12 4
331 1 24
494 16 12
292 15 0
373 8 22
87 9 6
199 2 9
471 8 3
188 4 23
338 15 15
329 3 9
424 10 28
226 16 20
166 4 26
7 7 21
454 2 11
494 6 26
282 15 24
199 14 2
150 4 18
75 12 15
136 16 8
455 13 19
27 15 2
181 13 3
361 1 12
162 4 1
411 4 1
8 16 11
183 15 1
17 16 0
5 6 0
119 13 18
493 16 12
28 2 13
163 11 14
270 11 6
457 2 24
498 11 5
40 4 21
163 16 3
125 3 3
57 6 28
409 12 12
273 14 19
146 2 21
435 14 7
51 4 18
499 6 25
323 15 9
308 13 15
268 4 16
25 13 2
336 5 10
147 16 22
179 2 0
398 8 14
145 0 4
151 2 18
76 14 2
456 4 5
142 10 15
454 7 9
280 2 10
367 2 18
294 1 14
432 10 19
10 1 28
153 1 18
134 7 9
43 2 24
443 9 15
218 14 6
55 7 28
292 4 28
254 4 5
4 3 5
35 13 2
489 8 28
43 16 6
35 14 27
3 8 13
146 11 22
192 0 2
242 6 3
200 3 10
439 11 2
323 6 6
51 7 0
11 10 6
317 6 18
128 16 26
403 13 25
381 2 9
448 9 27
8 15 2
428 6 12
20 16 17
325 11 8
41 15 4
184 7 5
272 7 20
474 0 18
452 14 11
450 16 2
103 0 2
336 16 19
375 16 7
213 1 7
330 14 2
23 1 25
315 13 16
113 0 24
301 1 10
259 1 8
354 9 4
215 9 12
386 13 11
459 5 7
267 4 10
129 12 12
252 7 14
12 12 28
329 14 25
99 1 9
30 6 2
465 1 14
234 13 20
332 14 21
89 6 24
430 10 18
162 14 16
437 11 25
282 0 21
158 2 5
161 10 8
491 14 18
127 1 16
342 1 28
132 2 26
359 3 1
39 0 12
367 0 18
321 14 21
31 16 24
326 5 22
296 10 23
381 11 9
352 10 17
309 15 13
64 9 10
142 13 3
160 12 8
42 12 25
441 6 2
389 3 20
460 8 15
225 6 25
448 9 10
74 8 4
396 15 22
53 7 1
70 15 4
473 7 14
398 11 9
334 7 4
189 9 12
485 10 4
13 4 20
368 12 21
317 15 12
330 7 19
65 16 27
177 1 2
328 8 26
87 0 6
379 13 16
320 4 1
4 13 27
98 5 1
472 12 25
143 14 13
336 5 21
394 1 5
211 3 8
437 14 14
159 15 1
460 2 6
66 15 21
109 2 2
317 6 24
212 8 0
231 12 5
93 10 20
169 14 10
271 5 26
469 10 25
354 10 16
387 10 16
156 15 27
228 8 5
448 12 28
115 0 0
219 16 9
117 5 15
266 14 12
190 7 1
209 16 1
33 4 5
159 6 5
236 6 15
21 5 14
309 7 5
318 9 7
82 15 2
295 6 8
388 6 26
377 12 17
73 9 12
140 6 17
161 16 11
333 14 17
469 8 27
405 1 8
231 7 2
29 12 25
255 13 22
45 16 20
468 14 17
28 16 13
299 15 8
231 9 18
388 2 23
375 14 25
445 12 13
498 6 27
466 15 17
338 4 7
211 10 10
351 14 21
161 4 6
350 4 25
442 16 11
365 5 17
11 6 6
23 9 13
339 12 10
434 3 4
336 14 19
185 3 16
443 0 12
473 15 9
153 13 3
58 12 18
278 15 19
478 0 14
84 0 1
309 15 7
455 4 1
483 16 10
123 12 5
298 10 6
200 5 14
83 0 6
280 4 9
37 10 3
366 11 27
305 10 23
227 0 4
430 6 21
128 8 25
251 12 11
218 8 22
36 0 11
177 4 14
39 2 0
140 4 7
205 16 19
367 9 28
220 6 15
239 9 2
66 16 25
379 10 24
448 3 2
113 3 21
451 0 23
92 2 19
328 16 22
265 6 0
15 9 7
498 9 27
466 12 7
80 15 5
365 2 3
88 15 11
408 14 19
234 3 11
206 5 15
291 2 10
229 3 15
179 8 10
89 4 12
155 5 13
214 4 15
448 8 7
488 0 20
96 14 25
147 6 7
173 15 12
68 7 11
156 5 16
384 12 5
321 14 13
108 10 6
342 16 0
1 5 24
277 13 9
187 3 2
238 11 15
421 2 18
38 3 14
363 8 24
216 3 7
71 10 14
395 16 19
187 13 9
191 1 18
220 13 2
118 14 19
37 1 3
481 14 28
301 2 28
265 0 17
369 0 8
480 1 26
118 14 7
386 11 19
115 15 9
455 8 16
489 12 15
499 8 12
75 2 27
420 7 3
476 7 25
343 8 7
283 5 12
147 7 25
9 10 24
45 10 4
448 10 27
18 9 18
294 10 7
455 3 11
200 13 20
42 10 24
70 0 26
42 14 15
480 5 25
461 9 1
357 14 11
339 6 21
66 0 28
51 1 25
499 13 7
91 11 15
332 16 18
270 11 20
410 10 5
354 7 10
455 11 16
115 14 22
59 11 24
422 0 22
445 0 17
101 5 27
368 14 13
107 10 20
443 6 10
458 12 26
299 0 16
481 7 17
426 14 2
213 12 6
55 1 4
361 15 2
8 15 2
9 4 20
431 3 4
407 9 10
218 2 22
79 3 27
474 2 22
341 5 4
214 15 11
467 10 15
246 16 20
429 5 27
46 6 6
168 9 8
107 5 13
463 1 6
181 12 6
33 12 22
49 14 27
162 15 17
156 7 14
367 14 21
251 8 20
454 12 4
327 12 5
292 2 5
141 14 23
313 10 11
319 9 21
78 16 9
381 15 14
385 13 10
400 9 27
253 10 25
317 7 17
289 2 11
133 1 22
451 3 24
47 3 5
111 12 11
285 7 21
46 13 2
408 0 1
213 8 22
91 11 4
292 0 25
296 8 19
117 10 13
97 13 22
273 13 24
343 11 11
350 10 23
444 6 19
112 0 13
135 1 12
263 13 22
53 3 1
18 9 11
250 14 16
434 5 10
333 5 12
345 10 23
20 3 27
449 2 14
122 15 25
13 3 13
86 15 13
404 14 18
214 14 20
209 0 19
373 9 22
173 14 27
463 0 16
457 5 7
300 12 4
44 3 9
50 5 28
239 4 12
136 5 28
3 3 27
142 12 12
496 14 12
22 9 13
33 11 27
302 6 1
458 4 11
354 9 14
452 1 22
123 7 11
354 3 22
287 4 4
400 2 15
183 16 4
224 16 11
290 13 19
261 3 8
54 5 0
126 8 18
292 13 17
380 3 20
209 6 2
214 6 17
69 15 17
88 9 4
319 16 17
221 11 8
181 4 6
184 5 27
18 15 16
80 0 25
355 12 2
101 10 22
386 16 26
469 10 0
363 15 6
172 13 8
482 9 13
252 2 5
59 1 21
479 5 7
423 15 18
373 0 4
358 13 3
430 8 6
91 6 7
399 16 17
80 2 8
321 1 24
207 8 8
34 1 20
183 3 21
259 12 0
123 6 14
50 4 6
72 7 24
460 16 11
302 8 17
210 9 1
254 5 19
60 3 7
95 1 6
365 0 26
251 5 3
179 13 19
32 2 19
56 16 4
337 2 13
140 15 23
493 12 16
68 8 24
222 0 2
340 10 9
221 16 14
498 4 26
16 9 9
410 3 25
286 7 13
34 5 23
348 9 0
417 13 23
226 10 4
278 7 1
203 3 9
498 0 18
219 2 9
31 16 12
141 2 16
430 9 0
248 9 16
148 7 28
168 16 6
265 14 3
389 8 17
119 8 1
195 7 24
295 5 20
416 4 22
227 10 13
110 7 23
227 16 5
101 0 28
208 7 17
137 15 10
72 6 0
166 11 20
2 13 0
257 3 24
387 0 4
5 1 27
268 10 5
123 14 17
124 3 8
390 0 22
1 2 0
492 14 17
468 0 10
18 8 23
196 15 10
352 10 28
177 5 6
374 14 17
110 2 3
18 13 25
52 16 15
17 15 24
345 12 17
124 1 11
294 15 13
9 10 26
49 6 21
46 1 17
135 3 24
332 8 6
199 7 3
416 8 14
249 9 8
293 16 6
12 1 0
23 11 1
75 2 27
496 8 4
214 1 20
5 11 5
309 1 22
109 8 25
450 14 5
385 0 16
453 10 19
298 14 5
310 16 18
105 5 5
422 9 7
278 2 27
22 1 28
344 14 25
343 14 20
104 5 11
20 9 23
48 15 16
313 15 27
411 14 12
196 3 19
201 4 28
482 14 24
467 8 17
294 2 8
494 12 11
485 6 3
19 12 2
6 0 1
202 10 15
349 7 8
9 13 1
466 13 8
164 6 17
126 2 9
425 16 25
471 1 3
412 12 26
152 0 22
96 3 15
366 2 1
117 2 11
421 16 8
446 13 0
164 3 23
130 9 20
220 8 1
282 9 1
99 11 19
48 7 16
275 12 18
357 16 8
437 14 6
328 3 23
297 5 28
48 0 13
475 8 13
123 14 1
433 7 10
141 9 15
312 16 23
126 14 6
250 7 15
308 3 26
91 8 16
340 15 0
20 16 10
15 16 25
12 7 14
299 14 6
179 6 15
206 1 22
82 13 24
428 0 22
474 10 13
240 1 8
164 14 9
309 15 3
431 8 7
190 11 4
16 8 27
274 12 5
393 12 13
215 3 4
149 2 9
375 15 21
26 4 20
372 12 26
447 10 6
377 2 10
284 15 26
342 14 25
112 15 18
74 15 7
483 5 3
160 1 13
135 14 1
342 2 6
223 16 22
188 2 14
123 9 0
465 3 22
59 2 15
180 11 22
405 7 14
397 5 17
417 1 22
411 2 12
5 16 25
254 4 6
388 2 3
477 14 7
177 5 11
446 10 19
171 15 22
485 4 8
307 1 28
486 9 6
27 5 8
496 14 28
146 0 13
152 3 8
271 2 15
187 15 19
437 4 9
269 8 2
417 16 21
342 12 22
119 2 1
53 6 15
258 7 26
385 8 4
455 1 16
27 9 16
235 14 3
328 11 8
5 15 24
203 5 0
124 2 10
90 15 8
20 1 9
288 8 7
166 3 19
298 2 12
468 16 13
354 11 24
400 6 11
300 0 16
487 8 9
0 0 12
75 7 17
232 1 19
231 8 13
161 13 24
162 0 28
124 14 13
171 16 10
380 1 10
84 12 7
139 12 8
41 8 20
422 13 20
435 12 17
181 7 23
262 11 0
297 10 13
60 2 7
218 7 27
281 6 3
346 11 9
10 2 3
289 3 23
393 2 5
176 13 24
6 4 4
316 15 3
249 5 13
361 2 28
160 1 18
426 14 15
368 4 16
449 5 8
355 8 6
154 12 22
90 15 24
440 14 1
267 11 28
482 9 1
51 9 22
21 5 1
181 13 23
343 9 26
376 13 1
471 3 2
355 15 1
284 12 0
398 0 8
280 2 1
305 14 19
175 12 7
359 3 22
147 4 21
30 12 28
406 8 2
160 10 13
131 16 23
310 9 1
202 6 2
360 13 15
397 15 26
321 14 7
262 4 11
232 7 26
64 7 15
469 12 14
89 13 0
334 10 13
344 11 24
434 13 5
476 13 10
162 16 3
251 7 10
70 13 19
253 14 25
76 11 24
292 3 14
407 16 1
33 5 2
319 12 15
180 12 19
152 16 22
283 2 19
89 16 19
245 1 15
176 16 26
221 4 8
210 8 25
310 4 5
148 12 27
136 1 16
114 12 20
465 11 28
43 5 10
340 5 28
459 13 22
269 2 18
432 5 12
126 13 0
305 1 17
49 8 9
51 5 6
200 2 12
444 13 17
76 3 23
274 2 9
179 5 24
67 8 22
46 0 8
269 15 19
402 9 26
83 10 24
393 0 12
198 9 19
382 10 13
51 11 27
102 5 1
480 4 19
397 14 24
281 4 17
314 3 13
251 6 21
305 8 3
303 2 21
136 12 1
272 2 18
323 3 22
34 7 15
185 6 24
174 13 20
110 11 7
68 2 25
50 0 14
44 11 18
134 1 13
187 16 27
444 11 3
484 15 13
436 12 24
254 7 8
466 10 9
409 6 17
496 2 0
349 5 12
11 9 5
455 14 4
72 14 24
49 7 3
498 8 14
12 7 2
477 2 7
464 1 12
192 16 4
15 8 13
402 2 21
194 12 7
53 3 13
246 14 5
9 8 24
40 4 20
125 13 5
37 10 21
142 3 3
417 13 3
164 16 13
377 10 28
139 13 22
31 1 15
252 6 8
51 11 1
347 16 8
19 8 19
354 9 27
83 3 26
54 2 17
377 10 16
324 13 18
348 4 22
209 16 25
114 11 27
35 3 8
383 13 26
391 3 5
202 6 20
437 2 7
0 14 11
132 11 23
31 3 22
428 12 4
490 13 16
329 3 28
166 4 25
102 3 12
280 9 19
85 9 27
372 7 16
27 5 7
57 6 19
461 6 23
471 3 7
340 7 19
495 13 3
244 16 0
219 5 2
84 4 3
336 15 1
447 14 13
31 3 18
313 4 4
217 4 20
408 12 17
4 2 18
135 4 21
241 15 23
448 12 11
290 5 13
486 11 25
430 13 27
202 14 2
36 14 14
45 14 13
320 4 21
344 8 15
198 7 20
320 4 2
73 6 9
55 9 24
178 10 23
95 5 0
125 6 5
225 11 7
351 14 17
494 4 21
494 2 1
465 12 6
187 6 12
98 14 4
3 16 2
180 14 2
274 14 2
158 4 26
315 8 26
42 9 23
203 13 18
39 13 4
275 12 13
344 4 24
371 6 3
224 0 12
195 6 23
333 7 21
405 12 17
256 12 10
339 6 5
250 0 16
27 15 26
182 10 15
2 2 7
431 10 26
308 2 20
148 6 22
166 12 25
443 8 23
368 3 18
445 14 9
395 6 9
358 6 15
234 15 14
410 15 2
208 13 11
389 5 15
172 7 12
232 5 25
310 14 1
240 4 9
423 15 21
310 16 26
212 12 14
154 3 16
444 11 25
479 2 19
345 2 25
249 6 8
312 12 1
486 2 6
442 3 23
376 10 21
145 10 8
283 14 22
66 15 17
345 11 3
462 3 14
281 0 21
300 11 2
7 5 11
69 13 28
369 9 15
208 11 18
278 0 25
148 15 26
104 1 7
362 8 25
344 6 17
391 10 9
104 10 21
282 3 10
390 8 21
102 14 1
331 4 12
317 10 12
337 12 24
358 15 11
26 6 15
98 8 4
185 10 19
408 8 15
229 13 1
309 12 27
183 10 10
142 10 22
415 8 20
180 16 11
190 4 8
65 2 20
412 1 0
188 16 2
193 9 0
354 12 26
390 4 20
105 14 27
87 0 20
193 1 3
333 7 20
169 6 24
448 14 18
200 4 10
40 7 28
229 11 28
138 4 19
402 8 2
305 5 2
397 11 22
237 16 27
311 2 25
84 9 7
333 4 28
382 2 6
320 7 21
48 13 8
412 13 12
265 8 11
216 16 8
66 0 26
171 11 5
115 9 3
270 10 5
280 9 21
29 12 3
158 7 25
474 12 5
73 3 12
424 8 9
156 10 22
108 1 10
323 14 23
119 6 3
237 10 18
470 4 10
498 1 24
59 7 15
389 3 13
215 15 16
254 16 7
295 6 1
76 11 13
358 16 7
318 16 8
96 1 22
89 1 19
152 10 1
79 3 26
12 0 15
349 3 12
160 14 27
417 16 22
281 11 11
28 3 9
456 9 5
443 12 2
64 7 11
446 16 7
32 14 5
432 3 16
167 11 5
362 3 6
110 2 22
368 15 18
491 7 27
378 0 9
173 6 4
134 10 8
96 15 16
303 9 14
159 4 19
22 6 12
395 12 17
465 11 27
399 11 25
338 5 12
94 3 6
64 11 2
483 1 20
26 12 12
158 3 27
295 15 20
373 4 23
347 11 11
165 9 28
94 8 9
227 1 5
280 15 8
69 1 1
479 0 19
481 13 26
424 6 8
499 3 28
93 6 17
393 4 6
332 15 19
354 6 28
173 11 28
380 8 18
298 4 4
79 8 4
299 3 28
76 3 22
274 12 0
119 1 24
392 7 7
192 13 22
200 13 20
201 6 7
70 3 0
370 7 24
164 11 23
188 12 25
95 4 1
353 6 4
429 9 20
394 3 21
237 5 17
417 12 2
489 12 13
361 15 5
65 4 19
128 13 25
453 8 0
249 8 13
241 9 25
127 5 13
152 13 26
67 15 12
56 10 15
268 7 23
36 1 27
159 16 5
55 8 28
38 9 19
493 8 14
428 2 2
231 6 6
342 10 15
404 16 11
453 2 26
382 0 8
346 3 9
339 2 18
230 0 27
374 0 1
202 4 4
430 13 11
451 9 3
137 0 12
84 3 0
91 1 26
298 10 24
394 5 28
129 8 4
366 9 11
412 10 16
209 8 10
458 16 3
333 4 26
277 10 24
94 0 17
113 3 22
89 2 27
402 1 4
6 7 14
341 7 14
484 6 9
324 1 17
238 9 28
307 13 7
397 0 0
51 10 13
280 8 7
423 10 27
467 15 26
201 6 5
391 7 23
122 2 8
316 13 24
234 11 7
233 12 0
14 6 14
424 15 24
272 4 0
37 7 15
494 1 14
458 3 10
146 4 12
406 14 22
10 7 15
451 11 20
419 0 8
485 9 10
293 9 17
394 5 7
288 11 10
344 9 13
9 2 17
371 3 28
346 6 18
53 2 19
396 10 21
69 7 13
359 9 13
52 2 15
84 9 6
34 8 5
305 16 5
37 1 4
416 2 26
244 11 8
56 14 0
222 16 11
217 10 12
149 8 14
220 5 19
451 14 9
83 5 4
467 6 4
271 13 12
249 7 7
382 15 28
153 2 25
219 7 8
62 3 21
287 9 17
81 10 20
211 15 22
20 16 18
292 5 23
101 1 0
72 16 11
197 14 19
272 12 7
258 4 22
408 7 16
494 10 5
295 15 17
96 0 17
38 14 25
334 13 14
490 7 16
69 10 20
142 8 26
59 16 16
433 5 25
246 3 3
114 10 21
473 8 13
108 8 28
79 10 5
275 2 1
163 3 8
150 4 15
154 8 13
191 2 22
291 4 5
177 1 1
478 16 24
480 15 28
241 6 18
166 15 4
438 5 26
121 3 27
75 7 12
447 7 20
247 14 9
388 5 18
411 9 19
494 1 7
280 8 18
184 0 21
441 12 27
350 4 24
341 13 22
133 1 7
454 6 11
125 6 12
16 12 0
466 8 1
325 5 10
133 4 10
422 13 6
306 16 2
81 16 23
368 3 1
243 2 3
138 6 5
269 4 25
144 1 9
108 3 2
317 1 11
475 1 1
335 16 1
467 5 6
148 11 12
474 5 17
284 8 15
261 3 20
158 13 24
113 11 24
96 7 8
284 6 14
315 6 19
145 8 6
106 12 13
304 3 1
83 5 28
379 10 18
487 12 24
79 15 13
327 8 12
111 15 9
72 0 10
72 5 7
180 9 13
445 14 1
64 1 7
275 5 26
152 1 11
228 2 18
474 8 26
187 1 15
357 15 2
445 16 9
228 0 7
96 14 14
351 9 25
65 15 26
1 3 22
474 10 23
239 5 12
422 13 26
496 16 15
374 1 21
293 9 28
370 13 18
466 3 2
399 16 22
461 0 22
61 8 26
435 12 9
377 11 22
289 11 19
316 12 1
192 8 15
49 0 16
373 13 10
202 15 20
244 2 21
179 16 14
116 4 20
30 3 23
53 5 8
129 6 3
152 0 23
133 8 23
2 12 24
51 12 8
463 3 9
400 5 8
164 5 3
3 14 23
315 13 26
163 14 15
62 9 21
388 8 15
269 4 13
170 16 6
243 13 18
262 16 27
148 1 0
486 9 21
115 15 9
172 6 8
479 7 14
311 3 6
112 16 0
319 2 20
29 4 3
309 7 24
392 4 23
453 11 28
199 12 26
172 16 15
366 10 4
41 14 13
165 3 0
278 10 21
39 16 4
377 1 6
259 10 18
415 9 22
193 3 20
413 4 2
237 14 1
174 13 20
140 12 12
235 7 14
184 0 11
234 6 17
350 14 27
223 4 11
442 10 21
398 14 17
397 2 18
44 7 10
68 10 15
348 6 19
302 5 17
292 7 11
453 1 9
230 9 27
465 3 19
164 11 2
361 3 6
283 8 14
5 5 4
229 1 0
276 5 26
378 16 5
449 1 28
443 3 25
52 0 22
429 6 15
357 11 9
211 8 10
16 12 20
296 12 23
52 15 28
393 5 24
265 3 13
381 16 2
302 9 1
308 10 19
52 15 20
297 0 21
379 9 12
397 8 9
263 7 13
62 4 12
82 14 16
326 2 22
116 2 19
437 12 24
400 6 11
452 1 26
351 4 9
126 14 2
158 8 2
189 12 27
276 6 9
187 12 5
69 7 9
435 10 24
194 0 17
144 8 26
280 1 9
352 12 15
331 6 0
380 12 18
98 1 16
409 2 6
32 2 24
65 13 16
214 4 28
239 15 3
104 4 13
442 5 12
386 7 4
452 6 16
309 8 24
470 11 18
125 7 23
221 14 4
152 14 6
410 5 23
109 2 24
24 8 6
206 7 9
95 13 6
118 3 22
117 5 6
373 12 26
220 11 19
460 15 16
362 16 22
76 11 26
143 6 10
435 5 19
234 10 24
22 5 7
285 0 12
51 4 7
404 13 23
291 0 3
373 7 18
305 5 25
433 15 22
135 3 4
352 7 21
468 8 16
253 2 14
494 11 5
474 4 16
456 7 24
224 10 3
360 5 2
137 14 11
480 8 19
161 7 4
253 3 25
218 0 17
279 7 5
402 7 16
187 9 26
247 1 11
412 6 12
50 3 9
128 6 12
394 3 14
146 11 24
203 2 21
96 11 0
379 15 20
166 0 24
67 12 10
139 16 10
23 10 13
394 15 0
1 7 15
99 6 19
300 14 18
402 10 24
163 1 13
141 7 1
357 7 19
452 12 19
28 0 14
201 6 18
112 15 20
379 2 11
211 16 13
108 11 27
155 16 12
136 6 8
128 8 14
252 6 8
296 15 0
440 4 27
149 6 5
321 16 26
247 4 1
92 1 27
48 16 0
221 5 28
34 12 13
169 13 0
157 4 2
461 16 2
367 9 26
402 8 17
252 2 0
363 10 16
318 7 28
194 16 12
365 10 26
115 9 23
285 8 14
339 12 27
270 2 13
303 6 12
340 2 2
147 11 11
95 16 11
175 2 1
200 0 20
285 0 6
76 16 6
18 13 22
154 10 4
286 16 14
127 15 27
161 11 0
434 6 27
300 0 19
5 15 18
231 12 2
133 16 1
267 12 9
3 4 22
432 13 8
391 12 13
352 6 3
188 11 17
207 13 5
198 13 17
72 15 1
363 7 8
318 2 26
307 10 22
197 6 26
33 5 11
456 5 9
330 4 11
104 6 22
302 15 20
149 11 4
279 2 26
425 8 3
222 3 23
348 10 21
365 5 7
421 7 20
272 3 11
197 1 11
71 6 3
150 5 7
253 8 25
125 16 13
67 2 5
140 14 1
7 6 17
14 4 10
211 14 6
367 15 26
8 10 13
325 0 14
488 15 3
495 3 24
480 6 1
192 12 18
356 10 8
457 1 7
345 8 28
115 15 7
103 1 22
44 5 17
392 16 17
13 2 18
450 9 8
356 0 5
235 9 28
18 11 8
231 10 19
38 11 19
194 0 5
14 3 16
157 15 24
374 7 14
419 10 8
63 13 12
232 14 2
448 12 11
139 16 11
461 1 5
78 2 0
173 7 17
103 10 13
328 8 5
493 10 2
146 13 7
362 9 19
219 4 10
245 7 2
400 12 12
179 0 1
398 6 11
185 9 24
238 6 19
497 3 27
38 8 9
405 13 18
479 10 24
482 4 10
219 0 5
312 12 18
59 0 19
323 5 2
239 6 2
72 5 10
55 6 23
74 8 20
371 10 16
35 13 5
325 15 9
439 16 13
314 11 2
374 0 5
98 7 21
64 1 10
238 10 19
277 1 27
435 15 0
472 2 17
418 1 8
174 9 8
161 15 10
455 13 25
88 13 3
109 10 17
435 2 19
317 2 0
285 6 17
469 12 13
297 8 11
24 10 6
56 14 0
426 8 9
134 2 12
408 2 22
37 6 12
81 16 4
127 9 5
234 1 4
39 6 16
389 11 13
383 11 19
19 3 16
403 10 24
117 5 22
70 5 1
174 9 15
492 14 2
161 3 0
499 1 7
96 12 10
349 16 18
221 6 4
225 7 16
36 16 25
132 12 2
420 4 9
359 16 0
124 3 17
105 7 3
99 9 25
415 13 10
118 12 18
49 8 26
148 4 20
138 14 27
20 14 1
110 7 1
330 14 23
377 0 4
360 8 0
222 13 11
215 6 6
209 16 2
60 0 1
349 1 20
454 0 15
119 7 8
412 7 7
442 13 4
226 5 15
202 0 9
340 16 12
109 15 16
351 5 3
430 16 3
232 4 23
141 5 1
165 11 24
212 0 2
260 6 1
138 3 5
386 13 18
39 12 8
216 15 14
130 5 22
312 16 20
171 5 15
48 16 19
201 0 8
348 16 0
442 3 26
361 9 23
236 3 5
442 13 3
367 10 1
315 11 22
59 6 9
168 11 20
378 5 8
454 0 14
351 5 13
308 8 17
132 12 1
128 11 11
337 7 5
409 5 19
463 7 20
297 16 17
390 9 28
405 1 8
171 3 28
135 7 5
310 2 12
51 5 3
476 7 24
465 1 11
148 0 7
8 3 5
62 16 24
205 4 13
93 1 16
49 0 20
312 3 4
88 4 14
64 8 8
7 15 9
400 1 24
104 16 1
233 9 26
172 1 10
80 6 0
168 13 28
401 4 5
3 5 6
107 9 12
206 16 22
208 8 17
124 5 15
364 6 17
432 10 15
318 15 4
203 11 5
392 2 19
233 14 12
341 7 27
452 4 11
136 4 19
208 6 19
362 5 19
86 1 22
366 7 25
19 11 5
107 0 2
228 11 24
328 7 3
339 5 5
352 4 8
354 14 7
325 12 17
320 7 22
356 11 28
13 3 0
60 1 11
121 14 6
183 11 7
163 15 8
170 0 26
142 3 4
438 5 22
107 1 16
26 14 17
282 4 3
28 9 25
134 15 14
3 5 28
106 11 17
235 6 9
77 3 3
29 5 17
483 12 15
449 0 0
153 4 2
365 12 28
344 4 19
101 8 3
62 3 16
181 1 22
356 12 6
410 12 26
437 11 23
135 9 8
427 5 9
204 9 18
373 9 27
255 15 16
72 9 15
206 13 8
399 16 17
90 16 6
321 13 1
281 9 21
354 3 21
192 6 5
437 9 4
288 3 24
280 3 13
114 15 14
376 14 3
289 0 17
46 15 17
269 16 15
22 3 25
497 4 1
72 0 17
65 16 21
350 7 21
475 10 26
113 15 7
417 10 13
329 0 9
212 13 3
215 12 7
302 8 21
457 10 18
344 16 10
62 15 2
202 7 19
478 0 26
391 16 17
79 14 22
364 7 12
450 6 2
30 5 10
242 0 3
456 0 8
433 5 19
27 6 23
229 0 25
308 15 20
238 14 25
87 5 6
115 10 24
68 5 10
255 11 10
12 1 3
466 3 20
202 10 4
31 12 7
168 16 16
324 15 7
430 2 9
391 2 12
397 16 2
156 3 6
273 0 14
13 16 1
128 11 2
28 5 26
41 2 27
490 6 5
73 11 6
330 7 12
214 14 25
56 16 26
19 0 15
29 13 28
265 7 13
252 2 28
342 2 24
78 16 22
146 16 24
454 0 8
2 1 3
169 12 11
242 13 3
305 16 11
409 14 12
216 4 18
236 8 15
197 14 2
156 6 6
21 16 5
468 5 25
121 9 20
267 6 5
236 9 22
471 10 1
270 11 16
200 1 7
349 2 18
15 9 20
455 13 26
2 8 25
35 3 0
89 13 8
488 11 2
119 9 3
360 9 20
416 11 26
320 13 19
492 3 2
432 13 19
165 11 2
359 5 10
198 2 20
230 3 15
209 11 27
491 16 7
20 0 22
460 3 15
356 9 14
482 14 3
455 2 26
414 15 21
130 2 9
42 1 17
288 13 27
439 3 10
298 5 19
470 15 17
492 13 20
235 3 0
464 4 10
414 3 14
342 3 0
337 2 24
166 1 21
411 11 8
241 1 25
260 4 25
59 6 9
9 12 16
401 16 1
404 2 13
379 4 9
356 6 13
126 2 23
450 1 4
487 2 28
328 6 26
92 2 19
93 9 13
474 0 28
339 13 7
121 15 18
95 3 22
365 5 13
125 0 25
90 11 5
257 12 22
131 1 12
429 6 4
225 0 21
32 8 16
335 12 9
103 12 28
170 12 21
136 15 5
346 0 16
316 9 4
334 4 16
138 8 3
196 11 28
137 11 23
155 5 7
115 16 12
277 12 9
420 10 18
26 9 20
114 15 21
196 11 14
26 15 1
283 15 11
268 9 10
233 9 8
40 0 11
248 14 11
39 4 8
476 16 18
285 3 15
469 0 24
189 12 7
322 9 8
31 9 18
410 1 4
214 8 9
172 11 5
457 3 6
478 1 26
89 12 4
259 14 14
10 0 10
388 1 24
285 15 8
179 3 23
465 14 22
7 0 17
191 0 5
328 14 19
96 16 9
430 14 4
140 7 14
58 9 23
489 4 5
169 4 25
399 14 0
499 13 1
180 2 13
469 5 2
104 5 12
115 13 20
381 14 22
382 11 3
241 15 11
202 3 28
231 10 3
346 0 3
394 14 2
124 11 16
102 10 27
172 8 1
110 6 22
260 6 15
121 0 17
430 0 11
374 13 9
211 3 7
202 0 1
372 4 3
270 7 23
474 5 23
498 6 15
155 5 9
80 14 5
396 1 11
319 2 18
236 2 21
152 14 4
365 15 4
173 16 11
457 3 17
29 5 13
289 15 6
219 10 4
453 15 10
430 0 5
78 1 2
54 7 1
121 15 10
312 10 5
439 4 4
362 12 13
71 3 12
375 3 27
431 8 0
100 9 17
26 13 22
464 7 8
349 3 9
1 6 17
329 0 28
496 3 21
135 5 28
312 4 23
309 2 25
117 9 7
135 12 20
310 16 11
386 12 10
457 7 10
153 2 27
252 6 4
424 12 21
439 3 22
352 0 6
50 10 14
467 11 5
277 15 1
232 5 1
95 9 14
113 10 28
344 3 18
468 2 22
255 7 28
411 13 28
312 1 12
82 7 19
215 1 0
284 10 17
493 12 14
0 9 19
460 7 16
123 14 20
19 7 23
207 16 7
294 12 4
290 8 26
69 6 24
302 14 8
454 7 7
436 4 21
496 0 5
409 3 27
472 9 21
119 10 8
340 11 0
15 5 11
70 7 23
376 11 11
313 9 21
426 8 2
21 6 28
489 15 16
499 5 3
164 15 7
494 8 13
338 13 11
112 10 0
246 10 14
55 0 17
348 0 8
284 10 7
423 15 12
122 5 11
161 16 24
0 7 6
65 3 16
269 13 3
284 4 0
384 8 18
24 14 24
438 16 24
115 3 19
215 12 28
407 14 3
207 15 4
333 12 28
121 2 22
335 9 28
420 3 12
295 3 27
77 15 12
395 3 8
67 12 15
204 8 3
417 16 25
80 5 14
489 9 15
415 15 27
220 14 5
186 14 23
32 2 3
403 1 10
44 12 3
228 7 13
478 8 23
14 2 9
105 7 19
58 8 17
135 15 23
265 7 4
145 4 28
32 1 1
142 16 12
68 2 17
311 2 28
146 4 21
154 16 9
393 9 14
52 0 28
224 16 21
187 5 27
2 1 1
115 2 19
352 10 15
41 7 23
2 16 5
372 8 26
371 15 17
343 6 21
118 2 21
342 7 12
391 2 9
375 6 10
171 0 5
359 10 21
377 0 0
462 16 21
420 15 3
11 14 2
11 6 27
357 8 21
499 11 23
67 8 27
155 2 22
144 15 3
352 12 19
245 7 12
354 14 9
327 9 10
169 16 14
290 8 16
446 5 2
403 12 6
440 15 2
480 5 12
486 14 16
318 14 23
418 13 18
271 11 22
294 8 17
357 8 7
336 7 15
439 11 4
75 12 28
134 13 1
415 12 5
200 10 26
184 13 3
452 2 13
277 7 14
399 2 24
228 16 0
473 7 1
37 12 25
499 4 3
328 5 24
216 1 23
441 14 22
232 8 9
484 3 24
63 11 7
66 0 15
372 8 18
114 14 28
46 14 10
217 14 18
235 13 1
464 10 26
346 0 5
275 4 25
152 7 20
208 13 20
26 8 3
376 16 22
232 5 16
180 3 3
181 14 0
436 3 18
423 14 16
313 9 5
275 16 13
150 7 27
460 13 23
487 2 28
89 9 10
224 0 21
420 1 23
83 2 6
326 13 3
220 7 12
247 10 18
214 4 14
16 8 2
30 7 4
217 15 14
194 5 28
38 10 21
103 14 16
450 12 7
429 7 28
142 13 1
184 11 22
189 3 14
73 6 4
39 16 1
454 0 18
197 14 24
373 4 11
207 16 1
75 1 22
263 5 23
283 11 10
200 11 13
267 5 2
394 7 3
46 10 26
384 1 23
189 2 5
445 11 27
57 1 0
136 5 11
489 12 27
20 12 6
453 4 25
165 5 26
47 1 25
128 6 15
4 1 5
247 3 0
33 4 24
201 11 4
499 12 27
294 11 1
45 2 17
185 9 21
451 2 7
283 5 17
203 2 0
72 3 28
49 1 23
224 15 28
210 3 25
340 14 24
459 15 7
443 0 16
20 2 22
406 12 10
136 14 19
105 5 28
355 5 16
320 1 3
488 12 7
5 15 25
464 15 8
41 7 21
332 10 24
304 14 22
141 6 3
293 6 8
212 16 9
486 7 3
108 4 20
75 0 8
271 8 25
460 14 8
51 11 4
80 9 14
4 13 12
338 0 2
169 14 13
349 16 26
330 16 18
63 11 19
262 16 3
156 2 2
64 9 4
165 6 1
466 10 2
211 8 13
467 16 27
70 15 2
429 14 15
424 12 15
214 7 5
486 10 12
272 6 3
58 12 25
211 0 18
52 14 24
374 1 9
278 3 12
340 3 18
15 8 5
89 9 14
163 7 15
316 11 19
368 3 14
178 4 16
443 9 16
497 2 4
480 8 14
314 14 6
280 3 13
63 9 14
376 5 28
186 16 17
95 9 27
167 8 24
473 5 12
324 16 7
30 9 22
223 1 9
168 6 21
411 12 8
269 7 0
175 14 2
329 10 23
456 12 23
77 6 3
176 8 24
346 4 5
348 4 24
36 0 23
258 12 0
36 1 20
404 10 26
68 6 6
184 12 27
318 6 23
196 10 16
478 3 12
296 15 0
181 0 21
11 0 9
373 12 10
323 11 12
136 5 22
480 6 12
427 8 4
192 0 21
418 0 17
479 5 23
94 14 1
68 14 4
358 1 6
88 1 14
0 4 1
414 8 8
477 15 11
473 10 12
359 9 25
40 5 7
442 6 28
205 9 27
401 14 10
192 15 26
200 4 10
145 7 20
397 11 28
400 3 8
177 12 27
161 8 5
21 8 1
370 15 18
107 15 10
50 7 12
396 13 3
409 7 19
136 1 26
180 10 17
302 0 12
413 1 23
496 1 18
479 2 9
140 6 12
140 14 16
168 13 4
37 12 5
394 8 23
75 15 6
69 11 13
194 15 23
426 2 12
341 16 5
420 8 9
125 14 26
90 6 6
217 9 8
100 11 4
67 12 27
268 2 27
465 2 0
386 3 3
420 7 1
41 11 6
288 16 21
122 7 20
132 4 26
374 4 9
351 4 24
489 8 10
359 10 4
252 3 21
457 0 17
150 9 24
37 13 22
413 3 12
54 5 17
199 2 23
124 7 27
363 0 1
402 11 12
442 12 28
402 10 11
57 10 27
345 4 2
178 5 11
328 8 28
204 4 17
258 1 21
277 5 9
89 12 23
304 9 16
360 7 8
453 8 0
108 16 4
141 7 6
220 15 4
281 12 26
376 11 25
88 10 8
401 13 25
127 7 28
133 10 28
196 11 4
300 13 7
268 15 26
29 1 5
167 7 27
402 4 3
120 8 26
4 16 21
449 13 5
242 6 13
123 0 20
297 12 11
287 13 15
45 3 24
433 11 11
71 2 8
224 0 26
95 7 13
216 10 10
296 8 22
137 16 19
38 14 5
459 2 27
150 7 28
54 13 2
440 10 20
338 0 25
310 2 2
80 14 9
40 0 3
306 1 21
154 4 0
431 3 24
272 11 13
182 2 21
496 9 24
162 6 9
252 9 22
170 15 20
121 13 0
328 3 7
44 11 28
340 8 4
492 10 20
411 6 3
160 1 18
226 7 14
152 15 28
16 14 19
357 0 6
347 9 2
434 10 13
409 4 15
432 13 13
54 3 18
259 1 12
149 16 11
321 16 10
242 6 7
382 5 2
147 9 15
475 1 2
99 13 16
114 11 3
139 2 5
54 12 15
170 10 12
143 6 6
168 5 5
150 13 2
161 0 28
207 6 20
310 0 28
357 2 22
13 16 18
13 10 25
482 8 16
134 9 0
414 16 26
407 5 3
329 15 16
27 13 8
46 8 13
416 4 19
265 11 22
449 7 24
458 8 11
437 1 25
425 10 13
339 13 5
135 14 12
448 14 1
346 16 28
141 8 22
400 3 13
244 2 0
386 12 19
179 6 9
457 4 12
338 7 0
462 11 19
117 3 10
473 6 28
284 2 3
335 4 19
333 7 18
257 3 5
303 4 8
309 14 18
140 7 23
179 10 25
213 3 21
293 1 10
436 2 17
134 5 24
317 6 14
363 5 12
475 13 22
462 10 27
476 8 5
16 12 3
71 0 7
355 7 18
283 10 24
489 13 18
196 16 12
424 16 11
313 9 15
119 3 25
29 9 7
210 4 12
114 2 3
327 15 6
151 0 21
57 16 15
165 4 1
480 4 9
225 3 12
385 15 17
214 3 25
459 13 27
76 13 5
18 0 17
483 14 23
423 3 1
270 1 17
377 4 23
376 8 3
365 8 27
370 10 17
428 12 19
457 3 16
187 9 0
196 10 22
438 3 23
73 10 3
150 7 9
29 7 18
206 3 9
132 3 10
168 6 18
340 13 10
44 8 11
167 8 17
56 9 20
227 0 7
435 13 27
448 15 23
450 13 15
387 1 5
402 14 14
18 5 10
259 1 0
67 1 19
253 0 10
172 15 7
116 14 20
65 2 12
488 0 4
499 12 0
443 7 2
474 5 13
286 13 9
249 1 23
338 11 6
494 6 0
112 15 17
420 16 4
156 13 21
251 4 9
101 15 9
49 10 4
246 0 24
200 0 6
18 2 14
360 6 22
449 3 12
296 15 19
197 4 1
23 0 2
86 13 17
276 14 27
11 10 6
396 9 4
291 5 7
466 14 1
24 10 13
272 8 28
151 7 16
208 4 18
123 16 0
252 15 23
275 12 3
100 4 9
40 7 9
12 13 3
0 2 19
347 5 8
302 9 17
339 16 27
96 5 15
204 14 20
285 11 11
449 13 14
450 13 15
46 13 1
136 15 8
216 1 4
314 11 28
286 0 19
6 11 5
69 9 0
361 11 10
449 1 24
109 13 25
447 0 11
397 7 0
349 1 15
292 1 3
315 0 24
191 2 28
440 0 14
385 9 22
368 8 11
49 12 15
39 8 0
259 1 13
192 16 2
337 1 22
239 7 1
128 16 27
259 0 7
315 2 4
454 1 10
254 15 17
261 2 0
259 0 25
169 1 17
350 14 14
425 11 11
467 10 11
101 9 19
94 16 7
52 5 7
382 1 11
66 10 2
289 16 9
181 15 24
176 1 13
22 15 17
338 13 20
372 4 17
281 2 13
350 6 22
321 16 0
242 9 22
459 0 12
60 12 4
88 11 3
27 1 23
146 3 18
255 11 23
406 13 21
23 11 13
415 15 0
293 16 6
324 7 28
450 8 5
33 16 7
211 8 5
54 10 3
340 12 13
231 15 4
123 8 0
264 14 16
230 0 25
385 1 25
387 2 27
338 11 6
24 10 1
483 7 19
16 13 0
263 7 14
52 8 0
348 5 19
381 16 25
425 13 19
436 13 6
207 5 2
405 9 5
239 0 5
42 9 25
358 6 0
81 16 3
144 15 20
389 10 20
256 13 11
241 14 14
131 5 18
19 15 14
18 12 3
165 1 21
89 3 12
478 10 11
438 10 0
208 8 23
388 9 2
147 2 10
243 16 18
274 6 24
240 5 28
315 10 7
435 5 18
90 6 0
489 13 25
5 5 22
204 6 12
328 13 20
134 16 25
173 10 6
5 5 8
297 6 12
495 10 1
54 10 7
36 15 9
5 7 18
51 15 12
28 12 23
458 11 14
45 4 22
133 12 18
12 0 10
340 3 2
375 6 20
240 1 0
20 3 16
427 10 6
190 16 28
410 4 4
138 4 20
460 7 3
192 2 4
173 5 23
308 11 9
403 0 6
227 12 28
257 0 3
419 13 16
42 15 17
335 6 23
332 0 3
341 16 12
69 14 6
432 4 28
208 9 19
165 7 12
374 4 17
417 0 3
26 7 5
26 16 7
397 15 10
177 2 25
106 0 2
12 12 4
10 1 25
39 8 5
239 3 18
311 2 13
44 0 10
381 4 10
343 10 21
327 12 10
174 7 11
206 2 13
11 0 17
170 8 27
18 8 5
138 0 21
131 4 18
20 4 27
439 4 9
401 16 8
349 13 1
492 10 19
125 12 12
485 0 22
304 12 12
269 2 7
202 8 13
309 13 10
167 2 1
382 8 9
206 8 27
336 9 1
148 14 3
141 7 7
421 15 12
203 16 24
263 16 12
361 10 22
146 1 12
67 5 14
271 2 8
126 12 5
153 6 7
483 3 9
324 13 2
483 1 12
167 4 5
261 12 13
493 0 23
76 8 14
354 11 23
373 1 24
457 12 18
344 12 0
409 16 23
105 5 17
275 11 9
48 10 3
480 12 7
273 12 7
264 8 24
10 8 27
279 16 2
448 15 25
177 15 25
59 14 25
348 2 21
267 1 24
434 3 21
344 8 14
93 0 23
12 14 25
348 1 20
237 7 15
300 13 2
292 3 13
375 14 21
242 7 22
497 6 22
260 12 15
45 16 1
391 11 21
130 3 11
452 14 21
378 10 2
276 5 23
160 10 20
420 10 2
186 11 22
474 11 24
302 10 27
3 0 23
306 0 7
237 7 20
263 6 15
167 14 4
431 6 15
466 1 9
450 15 0
483 5 1
318 4 3
96 4 19
257 2 7
457 7 22
299 2 15
152 15 4
152 13 25
2 15 18
125 7 23
358 15 22
410 9 9
26 15 23
312 15 21
309 6 4
490 12 15
190 16 23
276 11 27
333 15 12
129 13 24
33 16 17
172 12 22
306 1 19
396 16 2
296 11 0
474 3 16
306 13 28
68 8 26
369 4 3
468 4 6
101 10 21
268 5 16
453 14 23
428 13 13
119 0 19
17 14 27
118 6 6
418 0 20
149 0 9
375 9 8
87 2 18
228 12 7
154 12 24
69 15 6
177 11 10
136 15 9
214 10 3
44 15 27
490 8 13
260 12 27
223 12 18
72 10 9
25 5 12
437 7 23
95 8 10
122 0 27
49 13 0
147 6 27
372 5 23
357 10 21
162 5 9
167 2 4
242 7 8
227 3 24
131 7 2
222 1 27
79 11 28
257 10 12
189 11 5
70 16 21
297 10 22
272 13 19
118 13 12
35 15 26
367 8 2
392 6 19
55 9 17
181 4 6
29 11 0
281 6 9
106 3 20
387 15 2
320 10 7
254 7 19
452 6 19
257 4 26
177 5 1
471 6 11
262 9 1
397 16 9
6 14 27
55 8 12
377 9 16
227 9 14
205 13 2
132 4 13
323 2 11
104 13 26
306 8 11
372 0 19
340 4 11
191 15 18
456 7 16
277 8 26
271 12 28
92 16 7
150 13 11
57 6 21
231 6 10
433 7 27
215 5 5
74 6 19
147 4 3
157 14 20
159 0 11
449 10 20
347 11 6
477 4 17
182 1 10
69 15 27
34 16 9
493 4 9
190 4 23
343 11 7
73 10 2
167 6 14
347 6 4
175 16 3
186 13 26
421 16 3
293 11 23
263 13 27
217 10 12
286 9 27
270 0 11
455 14 18
322 14 10
140 16 17
70 7 9
499 12 13
2 3 21
194 0 26
272 11 25
181 2 28
69 5 24
16 10 8
442 3 9
436 9 22
221 5 24
13 3 26
26 16 11
174 13 21
68 5 8
399 8 12
323 11 16
159 2 11
36 7 10
328 9 12
63 3 15
427 12 21
229 8 7
467 3 12
197 14 10
340 8 0
443 2 20
431 5 21
178 14 6
6 10 1
149 0 20
115 16 2
105 6 3
410 2 20
393 7 2
91 0 18
239 4 10
239 11 13
182 11 18
357 13 21
33 13 16
4 12 14
59 6 1
351 9 12
413 3 18
177 10 17
168 11 9
273 15 22
218 7 1
199 8 28
276 5 6
368 5 13
287 14 3
344 12 8
312 16 21
482 8 3
342 6 12
21 0 0
118 16 13
273 4 16
404 5 18
264 10 1
232 3 8
149 13 12
149 10 20
241 11 6
151 12 6
67 7 19
197 0 22
271 14 14
148 16 22
14 5 2
462 5 23
450 14 27
325 9 9
48 8 4
340 14 4
102 2 27
239 4 28
469 10 11
99 14 25
419 14 28
32 13 24
269 2 25
492 1 25
264 16 28
148 9 6
150 6 16
212 3 15
230 4 12
319 0 21
29 3 13
461 12 16
192 3 2
152 5 10
68 7 9
12 6 21
199 0 20
256 15 5
389 9 12
262 3 8
182 5 14
479 9 4
271 11 20
420 12 26
78 7 17
458 6 23
230 16 22
89 15 8
105 10 24
288 4 24
39 14 28
109 7 6
30 16 6
269 9 21
331 11 0
191 3 19
408 4 2
300 15 2
100 11 17
458 0 11
400 2 3
98 14 13
484 10 3
154 3 11
389 15 10
91 6 10
395 11 1
416 1 18
252 8 21
408 2 12
143 15 16
91 8 28
258 9 4
40 3 6
355 13 6
266 14 0
198 4 8
374 3 17
95 9 8
233 2 0
476 9 1
423 15 16
225 9 0
299 15 3
3 4 12
179 12 20
175 11 3
434 14 7
380 4 1
182 7 11
408 14 4
393 0 0
472 11 12
484 16 8
497 11 16
75 13 1
86 13 19
335 3 20
348 6 24
496 1 11
123 16 20
40 14 19
234 1 16
380 0 26
170 15 5
45 1 2
439 16 13
20 14 11
131 3 6
466 16 17
410 9 11
135 6 18
137 14 25
355 6 26
469 14 23
140 0 6
65 8 9
180 9 27
241 4 14
312 0 13
167 8 12
63 13 19
94 11 15
496 3 14
395 16 0
483 8 24
495 5 13
105 7 23
146 16 11
268 15 28
339 4 14
302 2 24
294 14 27
305 13 27
388 0 28
365 4 1
471 9 14
64 1 9
140 16 19
367 14 16
205 2 1
103 10 14
12 16 6
445 4 27
142 9 10
395 15 20
406 12 10
14 12 24
201 4 10
416 10 25
292 9 13
455 2 0
138 4 0
59 6 3
123 8 6
409 0 7
125 4 27
78 6 12
476 2 26
415 0 13
66 2 17
377 8 21
477 0 20
301 16 12
4 3 21
88 14 20
153 14 13
318 1 10
96 7 3
15 9 3
22 2 5
157 7 7
254 1 22
131 10 23
310 8 10
104 4 6
180 5 3
456 13 24
368 0 13
216 3 3
156 9 1
258 13 9
410 2 12
31 0 15
45 11 17
141 16 13
406 16 1
438 12 23
126 13 19
229 6 7
8 6 19
464 2 6
475 2 2
253 14 21
65 5 27
369 7 9
252 10 5
499 3 17
396 13 16
53 11 22
366 6 8
168 3 8
93 3 20
402 13 9
121 0 23
371 5 26
282 8 1
339 13 3
72 15 12
53 5 10
379 11 19
457 10 23
431 1 17
304 2 12
496 9 20
248 14 20
24 13 7
130 15 0
301 5 3
54 1 26
370 14 0
369 0 11
229 3 23
0 8 22
134 4 2
85 2 21
102 13 9
299 11 11
291 3 8
372 7 22
303 6 27
422 12 2
480 1 7
146 8 4
307 4 5
281 14 27
159 1 27
124 16 0
477 3 27
170 3 24
270 7 6
303 12 7
162 9 9
363 4 11
285 16 8
379 0 19
273 12 18
352 4 2
92 6 1
199 0 19
107 2 20
390 10 17
337 16 8
413 7 20
348 2 1
62 10 7
440 1 19
166 6 16
282 16 24
299 13 6
135 14 27
270 4 15
383 6 4
317 5 3
23 15 16
421 3 20
65 15 25
134 3 12
224 9 9
165 4 3
13 5 6
404 11 27
361 7 2
422 5 21
134 7 15
471 13 0
234 1 6
33 2 24
285 11 19
130 3 6
150 0 9
372 13 26
73 10 11
245 7 27
15 9 2
247 11 23
145 13 18
476 13 7
418 8 13
388 9 5
495 7 7
488 3 3
55 12 27
483 12 16
463 9 27
167 14 19
463 4 21
321 12 11
209 4 4
467 0 7
184 11 17
244 0 3
80 6 17
137 4 16
64 12 6
231 7 27
406 1 2
234 13 17
54 12 9
44 5 1
393 11 5
405 1 16
481 4 13
26 16 22
390 4 2
82 4 12
398 4 11
239 9 8
469 1 7
358 6 24
231 11 20
248 13 17
326 10 28
401 5 0
79 15 28
27 0 28
192 2 25
442 1 12
149 2 17
20 0 9
30 15 24
449 0 5
414 13 19
92 9 18
437 11 10
254 16 5
231 8 11
150 7 7
287 1 19
20 0 21
276 16 15
415 12 20
281 2 17
41 10 18
252 5 1
388 0 26
196 0 25
27 7 15
490 11 19
229 10 13
239 0 4
113 9 12
170 4 9
342 3 25
54 15 10
488 13 19
495 12 18
142 13 2
38 6 20
151 4 1
314 10 28
49 7 5
263 11 27
414 13 4
294 7 26
413 0 6
415 0 5
429 11 21
347 2 5
203 11 0
278 4 18
108 8 20
192 3 16
377 14 18
453 12 10
442 16 21
12 6 24
37 15 15
74 7 5
371 2 2
303 10 19
35 2 15
446 16 2
434 5 1
163 2 25
368 15 4
155 13 9
111 5 12
345 6 9
300 13 17
290 13 2
340 0 6
74 7 26
286 16 6
89 1 20
359 6 7
216 0 3
389 7 5
413 2 10
127 2 19
29 7 19
12 7 19
78 1 4
194 3 14
350 10 2
387 5 27
234 6 25
50 12 7
193 5 17
405 16 12
51 5 18
68 15 1
355 13 19
454 3 12
150 5 8
306 12 0
268 7 16
126 16 21
299 8 20
47 15 11
433 7 12
194 1 15
57 2 21
96 5 12
427 2 17
463 15 7
134 0 19
447 8 24
76 4 10
178 7 20
402 5 18
99 16 26
26 10 18
304 2 21
80 3 4
387 7 23
54 14 20
130 2 1
267 2 19
345 13 15
109 15 10
272 3 26
102 1 4
237 1 17
173 3 4
257 11 0
481 14 16
498 8 7
177 13 6
18 9 27
353 5 1
487 7 10
317 2 6
246 1 6
269 5 11
45 9 7
253 4 9
163 6 19
468 14 19
3 10 13
281 12 6
415 9 22
423 10 10
387 13 20
224 1 12
405 4 24
374 1 8
209 7 1
370 3 22
14 9 20
17 3 6
348 7 22
459 13 7
273 0 28
145 9 28
161 10 5
290 12 5
191 1 28
141 4 7
74 8 0
214 0 9
46 14 4
379 9 19
35 3 25
317 5 22
106 5 10
175 7 23
351 8 4
318 0 15
322 12 14
107 4 21
16 10 24
244 5 16
212 0 5
87 12 8
322 16 25
137 9 5
246 2 20
242 3 0
98 14 9
119 8 19
178 0 0
269 2 0
118 8 5
322 6 15
394 8 4
44 16 14
287 2 9
251 7 1
481 15 21
402 15 3
382 4 3
336 5 28
316 16 23
132 6 19
212 7 2
7 5 5
148 12 26
346 13 19
217 4 17
267 8 23
224 0 6
15 9 7
141 5 26
386 12 21
155 14 18
75 2 22
23 13 18
414 4 15
355 2 1
164 16 16
405 3 12
380 2 18
483 4 11
129 9 15
252 16 27
162 16 17
472 1 13
109 1 13
225 15 24
104 8 16
329 3 19
103 13 15
63 6 20
135 3 27
32 2 14
64 15 25
450 11 26
220 2 8
474 8 7
173 16 24
388 7 26
131 10 26
8 12 1
97 7 22
196 15 25
137 15 13
311 12 15
140 16 18
400 9 20
336 10 24
365 14 21
316 12 26
395 5 25
490 3 20
21 6 17
21 6 10
389 7 4
324 9 0
194 12 19
93 0 25
251 12 22
407 1 24
412 16 25
158 12 8
44 2 14
332 10 18
4 9 25
324 4 26
97 8 0
48 4 27
412 15 0
365 11 1
144 16 14
322 2 19
164 14 19
206 1 6
162 6 0
432 15 23
219 4 7
103 0 7
149 5 5
319 5 0
10 10 20
66 15 23
248 1 25
45 2 28
107 10 19
193 11 28
204 12 25
39 2 14
102 1 28
198 7 27
304 1 7
227 8 12
384 12 9
49 1 22
43 16 16
284 10 2
139 7 18
252 7 3
413 10 18
339 13 25
16 11 6
454 14 3
307 3 18
134 11 4
31 15 10
140 0 19
186 5 26
217 13 6
398 12 25
357 16 13
259 1 20
409 8 21
124 0 26
480 11 21
56 10 10
397 3 7
285 9 0
209 13 0
413 2 4
416 7 24
86 1 7
69 6 6
486 4 21
137 0 7
377 0 24
328 1 26
66 0 15
479 14 27
450 16 16
389 9 20
74 15 24
201 8 17
69 13 3
291 11 24
236 14 15
247 9 13
303 0 0
142 5 15
78 16 10
443 11 17
342 4 10
364 15 19
4 13 8
286 10 5
143 7 14
319 4 0
328 0 27
157 1 11
324 0 11
458 1 0
271 6 27
451 16 0
391 4 26
296 6 13
65 16 23
218 3 18
499 0 0
119 8 0
409 5 10
38 0 16
48 8 15
466 7 15
170 6 9
498 10 18
78 7 12
49 7 3
330 0 11
221 1 26
23 12 2
400 9 14
311 2 6
72 12 7
21 10 15
158 15 22
450 1 13
264 6 8
107 7 16
38 15 19
484 12 27
194 1 0
220 0 24
144 6 17
70 7 5
21 3 5
110 14 25
415 8 21
472 10 8
59 9 8
332 12 8
113 15 1
156 15 16
217 6 26
147 3 14
412 2 9
204 4 15
353 16 9
277 0 2
218 11 20
27 3 12
499 4 26
87 2 17
47 10 14
25 7 22
72 6 22
383 6 0
341 9 4
451 12 5
286 15 17
155 8 10
289 13 15
359 2 10
133 2 20
196 0 21
297 8 9
144 14 21
386 4 15
190 4 22
407 1 9
302 5 5
257 9 8
438 13 28
76 10 11
181 10 2
401 6 16
63 6 12
351 6 13
94 12 17
144 16 28
127 6 11
112 2 16
305 5 20
409 0 2
242 12 4
163 15 20
21 15 8
418 16 6
352 16 5
88 4 23
150 4 23
433 10 7
28 3 6
418 14 3
205 16 28
359 10 26
202 9 23
262 9 24
364 5 13
189 6 14
430 11 21
199 1 24
315 14 20
418 0 3
354 13 5
340 9 1
146 3 7
110 15 22
212 6 15
102 0 5
171 6 9
12 12 20
317 7 28
363 14 14
179 10 7
158 1 2
88 12 26
271 6 17
265 6 11
93 15 1
328 8 10
142 1 4
479 2 6
416 2 2
68 2 15
467 4 24
184 14 5
13 11 0
413 9 2
209 14 22
141 4 2
456 4 18
478 12 14
163 13 3
434 8 8
154 9 20
94 15 24
309 6 12
4 4 27
498 0 12
115 7 25
180 15 14
180 11 7
350 12 15
259 8 22
424 14 13
206 14 4
341 16 23
73 12 20
342 4 25
390 4 23
91 13 1
189 14 19
318 13 4
159 11 21
77 11 15
221 13 21
173 16 21
373 14 3
496 14 5
232 2 28
124 15 23
425 2 12
95 11 16
335 9 9
117 0 7
246 4 15
84 2 9
148 4 21
459 8 14
494 6 13
350 4 0
389 15 23
294 11 2
283 6 18
314 2 12
96 1 3
68 10 9
478 0 8
430 1 7
0 14 23
290 6 16
187 11 16
409 3 13
286 12 28
0 13 8
201 1 4
395 9 19
32 13 12
469 16 21
266 14 18
465 7 17
287 12 3
317 7 17
204 1 3
397 3 3
355 13 4
321 1 19
3 13 8
339 9 16
482 9 11
334 16 22
147 0 15
83 7 22
258 2 17
350 1 13
51 6 11
314 12 6
193 16 16
389 10 1
130 10 18
285 9 15
23 13 4
476 16 26
118 4 23
55 14 26
452 8 2
143 5 16
404 8 18
479 9 8
149 11 5
481 1 12
267 2 7
335 1 7
434 0 17
416 6 24
6 6 23
36 2 7
241 10 11
486 10 27
121 6 16
52 14 15
40 7 8
49 9 7
282 6 9
250 11 12
45 8 21
448 10 27
474 10 5
20 13 16
145 3 3
300 11 16
334 8 2
146 8 26
146 12 7
204 11 13
303 7 27
44 9 11
493 6 16
272 5 13
357 16 25
72 10 20
321 3 21
35 4 8
196 16 7
280 4 2
256 15 21
370 12 6
398 15 3
71 13 3
49 10 2
262 13 0
180 16 18
369 1 19
243 2 19
289 12 12
7 12 15
34 6 13
174 6 18
383 0 15
453 5 9
358 4 3
272 3 28
36 11 24
301 14 11
135 13 24
225 5 5
226 11 27
30 3 14
398 1 7
191 5 24
484 3 0
437 6 0
48 3 28
398 14 25
146 3 11
288 15 16
230 14 24
60 12 6
449 16 13
487 14 17
439 0 25
187 2 25
250 3 1
422 2 26
441 7 23
486 14 18
310 11 10
218 3 6
251 7 27
172 2 27
147 12 0
304 11 26
14 10 10
122 8 22
152 15 24
282 6 10
260 16 25
470 13 17
237 8 13
249 1 9
149 7 8
307 1 3
443 6 22
311 8 17
416 16 21
333 5 12
31 12 21
190 7 23
374 6 7
382 13 1
242 8 8
418 13 21
464 14 27
412 14 27
493 15 14
256 16 28
427 0 4
144 6 0
438 5 16
102 12 27
352 16 18
167 2 6
426 4 28
257 2 19
430 13 19
467 16 13
21 11 15
67 0 21
409 12 20
438 14 20
380 3 10
75 8 11
335 10 19
78 1 15
385 13 23
434 16 20
316 0 7
180 5 11
96 10 28
465 6 11
159 16 25
484 16 17
159 1 13
373 10 28
352 13 24
337 15 1
479 7 1
254 7 22
496 3 9
64 5 17
69 3 4
134 3 21
418 5 25
388 14 8
101 1 21
456 6 1
307 9 9
308 11 7
340 8 27
484 4 5
354 5 5
43 11 10
240 5 4
287 3 25
1 11 28
215 10 26
119 3 19
51 7 22
24 11 15
93 8 20
448 7 18
88 10 9
289 3 5
355 3 14
430 10 21
78 13 22
189 8 6
421 2 15
143 13 19
151 16 8
321 6 10
75 1 27
170 10 19
79 6 1
165 6 19
167 12 25
250 9 12
460 16 5
103 1 14
371 1 21
124 5 4
401 14 10
249 15 7
46 2 25
351 13 21
329 15 5
203 13 4
409 12 0
19 14 13
195 5 22
444 10 3
330 9 15
384 14 26
450 2 11
227 6 16
208 14 21
107 5 26
293 16 13
448 3 25
480 12 9
366 6 17
347 11 22
86 16 17
478 13 12
278 9 6
489 15 23
440 3 19
436 3 26
145 16 25
240 13 0
34 2 6
109 14 23
208 16 2
224 0 25
133 8 2
61 8 8
188 15 7
306 11 26
1 3 15
325 3 11
33 16 23
190 0 2
117 14 6
249 2 28
401 6 22
354 2 1
192 5 6
486 5 20
59 7 22
321 6 10
483 2 22
179 9 27
471 1 10
407 6 19
481 9 25
53 7 7
0 12 13
206 6 10
225 3 4
230 12 10
253 13 20
184 15 0
74 1 13
203 14 21
248 11 25
401 5 6
424 15 26
56 7 3
176 11 1
490 7 25
465 3 24
107 9 12
179 5 22
148 12 16
214 13 20
311 1 10
188 11 1
21 15 13
163 8 10
357 8 28
479 9 3
2 7 21
29 3 27
33 13 14
230 2 20
59 6 19
205 10 10
56 11 15
13 9 12
363 3 14
133 2 2
184 13 6
238 1 10
90 5 14
456 14 2
58 5 2
222 14 16
415 13 26
427 14 3
346 5 14
182 4 22
317 10 2
173 5 6
373 1 10
44 6 0
469 10 13
41 0 1
76 0 28
132 1 6
81 15 14
374 12 27
214 7 16
377 6 22
215 3 24
207 5 19
411 5 17
357 8 18
195 14 16
466 0 17
219 15 1
66 2 24
380 12 16
410 2 0
35 15 19
457 3 28
175 7 13
167 16 21
308 12 20
425 0 7
290 11 11
327 13 7
101 15 3
18 9 9
384 6 20
211 14 5
219 16 4
286 6 20
343 11 16
35 10 12
208 13 7
312 2 16
81 13 21
320 12 27
181 8 22
86 15 17
378 14 23
18 1 7
33 8 14
15 3 13
370 7 14
475 6 16
251 7 16
477 4 24
466 2 7
436 10 4
123 10 24
464 4 13
65 9 15
457 10 3
312 11 25
475 1 1
91 14 2
192 16 1
342 11 7
445 11 27
457 7 5
170 8 17
218 15 21
134 3 14
249 13 2
268 14 18
472 1 18
5 2 6
482 2 13
251 10 5
103 4 6
258 4 13
450 2 22
348 0 8
470 1 0
308 1 23
305 6 20
456 10 17
338 2 17
134 7 2
119 9 21
223 5 9
389 6 1
8 5 15
305 4 3
329 5 20
155 5 3
308 0 0
417 7 9
475 10 8
441 4 21
165 4 0
461 3 4
152 13 22
419 11 22
386 8 17
456 14 19
442 7 0
234 13 21
183 8 26
158 16 18
177 0 9
55 10 26
364 12 5
426 3 24
464 5 9
146 7 16
289 3 11
385 13 17
139 11 13
142 14 15
495 14 21
128 0 18
415 4 2
373 13 18
34 8 17
349 4 7
48 7 25
151 12 8
183 16 10
412 15 13
9 11 26
121 3 1
328 9 8
488 11 12
267 9 12
346 9 23
412 8 18
21 9 11
393 6 21
461 10 4
13 8 8
398 3 26
365 4 28
339 11 3
199 16 21
344 7 0
18 4 5
334 8 3
455 3 12
159 2 27
261 8 7
303 0 14
91 8 16
70 6 2
290 15 14
220 6 1
180 13 27
70 6 22
133 13 28
339 9 18
178 5 4
255 4 20
12 15 2
458 5 5
29 0 21
295 10 28
129 7 17
2 11 5
150 5 26
290 7 25
92 15 11
224 7 18
356 5 20
405 0 21
340 4 18
481 13 13
375 10 27
276 13 9
42 11 23
161 9 5
248 2 5
337 13 15
67 3 15
434 16 15
20 15 22
309 8 16
259 16 10
175 12 22
281 3 16
251 9 4
364 13 4
484 9 19
191 13 17
165 12 7
84 16 0
379 16 21
307 12 16
299 4 2
364 7 23
366 0 2
109 11 2
398 16 2
139 12 12
192 1 28
270 4 7
295 12 5
383 7 19
236 12 25
326 12 22
338 8 20
453 7 6
104 10 28
54 7 9
297 9 13
311 15 5
128 11 14
453 7 2
1 15 3
365 8 3
85 7 12
367 11 4
92 16 15
277 6 13
78 12 8
439 1 25
401 2 10
207 4 2
161 1 24
147 2 9
85 10 4
104 7 24
393 3 14
371 15 12
270 9 15
269 13 21
140 7 1
7 6 25
99 12 0
36 14 10
84 6 19
304 7 4
182 3 0
51 2 19
492 0 3
208 2 21
80 0 0
253 15 14
454 1 0
128 2 22
90 4 4
284 15 22
398 2 17
165 16 7
205 14 25
166 3 26
341 7 17
463 4 5
261 8 2
246 2 24
435 1 9
481 2 23
400 5 23
488 7 28
13 12 7
85 3 20
119 6 3
350 6 0
440 4 22
16 14 4
263 11 21
96 1 24
232 14 12
385 2 0
0 15 4
16 3 14
7 12 26
487 9 17
390 5 20
163 8 6
456 10 19
357 12 16
309 0 16
324 14 2
163 7 4
94 1 5
118 9 22
83 5 8
217 4 6
121 9 20
80 6 15
451 11 27
183 15 12
183 3 28
157 9 26
165 10 24
137 13 1
472 7 5
447 12 6
383 2 14
68 8 7
441 12 16
144 2 15
119 4 5
114 12 1
462 5 9
23 2 25
415 15 5
180 2 8
115 11 8
96 5 5
318 0 10
156 12 20
21 10 22
180 9 22
428 7 9
33 16 23
270 11 28
271 11 13
338 9 12
379 16 26
94 5 20
234 9 19
452 14 5
237 0 2
75 1 5
430 3 13
290 1 14
147 4 10
322 0 19
47 9 18
499 1 2
102 1 15
119 16 7
16 1 10
420 4 9
389 12 24
251 14 3
22 12 27
193 6 9
396 5 17
260 11 15
231 6 9
1 16 13
53 7 9
70 16 5
13 0 14
171 16 14
260 7 14
6 9 12
19 13 28
499 2 25
225 13 26
379 4 10
138 5 16
263 5 16
282 7 23
424 2 0
460 13 20
26 2 9
407 0 15
497 4 13
498 13 20
466 7 10
220 14 24
85 10 6
67 8 21
70 6 2
446 12 11
286 10 10
305 13 1
183 8 21
389 10 26
37 7 7
491 11 8
5 15 10
119 11 14
25 10 4
409 9 0
258 3 5
199 6 5
307 6 3
131 14 1
391 15 5
380 16 20
299 2 28
246 7 2
281 13 3
355 9 17
441 1 8
150 9 3
45 2 5
253 8 18
427 2 10
171 4 3
181 13 12
203 13 12
69 8 3
397 8 1
397 8 4
397 2 17
423 14 1
220 0 26
97 1 9
247 2 24
5 1 20
238 15 8
130 8 8
308 0 1
479 1 13
258 4 2
32 2 21
306 10 28
375 13 12
292 11 1
98 7 23
196 4 3
493 0 24
50 14 4
287 10 2
342 7 4
282 1 3
68 3 9
26 7 6
1 16 21
116 3 21
224 11 2
177 2 6
433 14 19
494 9 13
21 6 7
490 1 6
82 6 20
336 15 6
155 5 3
31 11 3
408 6 15
168 5 9
496 7 25
185 5 26
47 16 17
93 10 13
237 15 24
463 3 27
138 13 27
109 7 13
96 8 3
461 11 0
251 8 8
422 2 5
82 1 16
441 0 24
484 10 18
52 14 24
447 3 5
155 9 1
441 8 16
135 15 13
106 11 6
118 11 3
392 16 27
480 10 14
369 8 2
194 5 20
67 4 8
23 7 26
36 3 6
463 12 9
162 5 21
477 4 26
454 4 21
484 5 8
240 10 17
99 2 1
314 7 25
160 15 12
356 11 10
99 13 2
58 7 1
78 4 0
349 15 21
367 16 11
413 14 5
289 3 26
370 1 25
296 6 3
183 11 21
127 1 19
341 14 23
126 3 24
52 12 18
301 1 8
167 1 21
344 6 6
284 7 28
111 14 2
146 14 8
299 1 6
328 6 20
257 7 8
151 8 24
327 9 13
466 2 21
352 4 23
267 15 11
300 6 16
245 8 8
359 7 8
219 15 13
135 6 28
100 16 10
307 7 25
23 14 8
430 0 20
152 8 20
260 16 27
445 6 7
8 6 24
335 5 6
145 10 12
445 10 26
302 15 23
89 3 26
156 4 13
443 3 20
95 11 12
23 16 0
102 13 16
338 8 25
300 0 6
37 0 3
155 15 12
369 0 19
58 2 6
49 4 2
119 1 9
488 9 2
69 10 26
76 9 17
432 0 12
90 4 18
200 12 14
63 8 8
261 15 17
29 2 1
32 4 13
450 10 23
164 0 20
1 9 19
127 12 5
128 8 4
418 15 2
475 1 3
446 6 21
32 7 28
246 7 0
9 6 12
440 1 19
258 14 0
285 0 9
390 12 18
485 4 28
205 11 24
285 16 11
160 7 23
457 10 23
383 10 28
125 14 1
235 0 17
348 15 14
142 4 22
384 7 7
432 10 9
472 2 24
201 14 22
314 0 1
353 11 14
415 11 1
493 3 6
195 0 4
185 4 20
36 15 16
449 4 4
166 14 23
126 7 17
412 15 16
485 8 10
266 3 28
254 10 20
279 6 6
75 1 16
37 16 14
273 7 13
129 5 17
415 5 8
158 7 27
220 14 6
255 13 0
314 12 28
217 9 15
319 9 22
153 1 8
65 14 7
351 9 25
313 9 2
324 1 28
181 11 11
95 12 28
206 11 13
141 8 24
10 10 13
429 5 10
492 10 12
64 15 19
352 3 2
113 3 4
74 8 8
123 5 21
341 8 26
45 8 1
171 15 8
209 0 5
472 14 23
492 9 27
188 12 15
330 13 6
289 4 21
165 14 28
97 13 19
128 1 25
352 15 24
250 8 22
27 1 4
65 8 19
259 10 27
104 12 1
397 1 13
327 13 17
84 15 14
493 9 1
24 11 0
94 3 5
266 10 4
326 2 16
273 1 16
484 16 14
53 10 1
494 16 0
468 14 28
72 1 4
282 6 0
44 8 14
350 6 3
22 9 11
364 5 21
41 6 17
60 16 12
6 7 28
487 5 15
84 9 14
191 8 7
198 7 22
170 16 12
86 14 6
123 8 6
240 7 17
425 11 4
45 11 4
455 14 5
244 9 4
406 13 3
154 9 23
472 7 19
475 8 14
66 8 23
228 8 1
227 16 9
18 0 6
432 8 7
49 3 22
436 16 5
325 10 9
280 0 13
357 14 10
488 0 4
205 10 13
79 15 28
335 7 4
42 14 0
396 4 1
210 8 24
72 13 20
252 8 25
33 0 9
105 6 25
95 16 16
348 3 5
402 12 16
54 1 18
209 5 6
357 12 0
35 11 26
57 6 0
480 6 18
441 16 6
309 2 5
255 12 24
359 5 11
407 13 17
329 5 11
33 5 7
29 0 3
81 15 12
16 12 6
95 1 15
211 6 3
380 16 12
440 8 22
357 3 24
281 9 6
12 4 14
57 8 16
195 6 26
171 9 26
384 16 25
145 11 11
159 4 15
157 4 0
418 8 6
345 15 17
426 13 20
265 0 25
73 10 21
355 3 25
361 2 17
134 4 26
48 10 20
439 5 19
216 5 20
328 4 4
214 12 22
28 10 20
65 6 19
191 11 4
484 12 27
350 3 9
275 3 27
466 5 2
423 5 2
105 11 12
355 14 12
44 15 9
76 6 10
368 9 21
222 14 25
304 12 16
41 11 6
491 8 2
498 8 26
157 3 2
27 9 5
434 4 3
109 9 0
14 6 13
177 5 9
56 5 22
56 8 1
34 1 24
136 15 18
29 2 12
371 10 22
125 13 5
406 8 25
170 16 7
402 8 11
299 5 10
200 0 23
101 7 18
161 15 26
114 4 3
117 3 8
274 8 9
143 12 11
48 8 26
66 10 14
29 1 21
106 3 24
279 0 7
28 11 12
476 5 25
450 7 21
488 6 22
344 1 25
106 13 5
463 2 20
389 5 26
345 12 21
182 2 6
293 2 4
358 3 13
277 11 21
62 3 24
182 5 10
123 7 10
87 3 13
256 2 8
78 1 15
126 6 19
264 4 26
116 7 19
378 9 28
281 0 20
62 11 10
214 5 5
205 12 7
473 10 6
41 13 2
58 13 24
204 2 24
286 16 22
2 11 17
447 1 10
11 2 27
53 7 10
16 11 23
365 2 9
133 1 11
458 2 23
352 12 1
474 11 12
138 14 14
41 9 25
267 0 4
344 1 14
150 10 21
78 4 21
216 11 19
232 2 10
296 7 10
453 4 9
185 12 0
311 16 15
345 8 8
224 14 1
461 16 19
390 5 11
438 16 4
258 5 14
286 13 17
296 13 6
411 12 25
397 14 26
473 16 14
198 7 16
337 5 20
261 0 17
167 13 12
288 12 18
56 15 4
420 9 10
77 3 11
369 15 15
72 10 10
275 12 25
129 5 7
499 12 22
314 16 4
130 4 15
103 1 6
490 9 8
420 2 9
68 8 0
450 5 20
170 10 21
265 14 9
335 4 26
116 3 18
459 12 5
155 12 26
100 3 22
313 14 27
402 5 4
161 7 26
67 16 22
301 3 9
468 5 17
250 5 9
29 0 17
396 8 28
21 11 17
457 16 13
108 7 13
499 1 1
499 13 9
488 6 18
10 14 8
115 2 23
473 3 7
253 5 22
300 6 2
409 2 14
366 5 5
479 13 6
268 10 23
21 15 9
252 8 10
135 13 3
137 2 21
435 10 22
278 12 14
82 7 2
453 8 2
360 8 6
357 12 26
428 2 25
135 3 13
197 12 27
442 5 0
237 3 11
283 4 25
279 10 14
280 11 9
351 8 8
486 1 18
200 5 8
190 3 12
195 6 0
456 11 21
199 7 26
31 12 13
85 16 21
493 4 24
146 1 9
142 16 11
165 5 24
356 6 3
338 15 5
183 8 28
238 2 2
287 11 17
422 5 19
394 8 2
359 8 28
30 14 5
392 9 28
461 12 21
223 0 17
321 8 8
226 3 23
249 4 14
447 7 17
455 11 8
368 15 26
353 5 13
40 13 2
152 1 28
361 14 14
465 0 6
415 0 25
78 6 24
86 5 28
258 14 25
466 10 3
496 5 13
180 12 5
46 5 14
337 7 9
144 8 23
318 10 7
159 4 20
146 14 2
74 5 7
188 8 0
54 0 11
41 11 15
300 10 27
100 16 0
334 2 28
98 13 26
230 7 21
302 15 26
465 9 2
194 6 27
486 6 4
195 11 25
96 13 1
117 12 18
337 5 9
268 11 4
42 16 22
284 13 7
100 15 28
205 4 21
61 3 2
92 5 0
480 16 19
225 5 3
250 12 12
14 9 0
452 13 3
352 2 13
448 1 4
221 11 15
421 0 28
441 8 16
197 6 22
95 12 11
492 12 27
403 2 13
420 15 26
143 7 17
349 9 9
193 12 23
109 1 28
457 16 15
325 6 4
263 4 28
438 15 22
463 6 9
405 3 2
305 12 22
332 15 0
353 4 26
4 12 15
212 15 7
165 12 19
198 10 11
497 5 12
349 12 21
372 1 9
382 9 10
107 1 19
309 4 15
388 15 14
115 2 4
382 14 25
494 8 3
459 8 5
404 11 28
90 11 20
445 10 24
478 6 25
488 6 10
45 2 23
15 14 19
147 0 22
377 11 22
427 16 9
56 7 17
376 5 20
249 8 27
353 3 9
461 1 28
445 8 18
86 4 10
30 13 20
491 3 26
119 8 5
58 5 5
483 6 20
472 3 8
476 9 16
290 1 2
445 7 13
37 10 27
388 8 9
268 15 6
145 7 14
259 12 18
171 6 12
265 8 8
339 8 19
98 3 27
90 16 6
301 7 25
73 5 1
240 3 8
491 2 7
261 12 5
258 5 5
33 0 26
478 6 17
435 13 19
309 3 21
324 11 13
184 6 0
362 10 21
174 12 18
151 7 12
288 13 7
486 10 9
258 16 22
363 9 14
70 14 25
252 7 3
309 15 26
357 7 3
424 4 25
408 5 13
31 8 4
252 8 0
359 15 2
388 9 4
240 13 4
458 16 25
160 5 7
290 14 22
66 2 1
188 0 26
496 11 13
79 15 16
289 14 15
130 8 27
383 1 15
268 15 5
35 9 21
85 9 0
48 2 10
473 7 27
193 11 9
28 0 25
361 1 14
333 5 17
21 11 24
146 3 21
109 3 4
444 8 15
49 9 22
67 15 7
46 4 22
53 11 1
493 4 23
89 1 12
244 14 13
397 1 1
51 14 10
351 6 4
409 4 12
202 2 19
44 6 28
33 4 14
464 3 22
466 13 25
0 16 17
258 1 17
299 1 7
287 6 18
426 14 7
36 12 14
231 7 19
125 15 15
98 7 20
184 12 18
344 2 15
490 5 26
359 0 13
293 15 28
490 3 19
209 13 20
24 11 9
444 16 9
373 6 6
12 3 15
117 2 27
487 13 27
243 0 19
332 11 4
290 7 11
327 0 15
380 14 2
322 5 1
405 11 1
298 3 13
143 14 20
219 6 7
379 2 1
306 13 15
6 14 28
318 9 18
11 14 27
70 6 23
122 12 17
439 6 23
162 6 14
408 9 11
65 14 0
388 2 28
238 5 6
130 3 19
60 14 25
51 7 3
101 9 1
239 2 6
95 0 27
379 16 28
123 1 24
265 16 22
469 4 16
144 16 9
232 14 6
163 12 4
436 6 18
475 12 12
435 7 22
360 13 25
223 3 5
301 7 3
420 16 25
140 7 7
353 8 11
477 12 5
449 14 2
183 8 0
307 8 19
451 5 22
411 5 12
217 14 5
174 4 16
496 8 14
7 10 25
334 13 27
107 13 14
140 6 15
155 8 27
182 15 16
470 9 5
41 15 27
363 1 8
346 15 8
229 3 21
202 12 5
408 2 21
364 13 12
261 4 14
24 4 7
299 16 18
447 7 11
343 2 8
339 7 28
127 2 15
101 8 3
260 14 21
170 1 22
33 8 16
471 2 3
64 3 3
109 4 2
134 14 1
352 1 11
138 12 27
322 12 5
400 16 7
432 4 13
368 15 16
309 0 24
66 16 11
476 7 27
328 13 20
171 16 11
321 12 23
251 15 22
26 7 16
284 16 28
110 14 20
160 9 5
359 3 3
374 15 26
47 7 11
137 0 5
85 4 13
124 5 20
12 5 23
8 5 8
217 6 23
89 11 11
190 8 28
133 8 10
371 3 0
275 1 3
374 15 24
282 2 19
247 13 22
415 5 17
32 0 13
306 7 13
21 11 9
57 7 5
226 9 2
304 12 19
70 7 20
234 15 21
114 12 14
104 7 22
57 11 8
88 11 22
385 16 21
8 12 14
52 0 27
465 4 21
110 13 26
362 16 1
478 6 9
110 13 6
93 6 24
156 0 23
284 6 23
218 7 11
479 4 13
469 10 26
397 12 2
227 10 0
433 4 4
203 0 2
108 2 22
359 5 11
401 8 17
187 12 22
194 16 10
44 6 25
32 13 6
324 6 24
167 12 0
481 5 23
493 4 3
131 14 21
216 6 21
220 1 6
40 5 13
92 4 22
487 14 12
278 5 0
303 12 3
403 4 11
496 15 23
415 2 21
397 2 8
316 6 12
93 12 16
328 4 18
91 3 26
379 12 5
8 4 26
155 14 16
371 1 6
37 2 27
153 12 20
281 1 0
389 13 0
157 3 23
457 1 12
98 3 14
389 6 8
171 15 15
159 13 25
455 13 0
341 13 2
160 9 9
92 2 17
205 9 20
138 0 8
322 7 24
126 15 2
335 6 1
323 14 5
395 5 2
56 10 2
323 5 17
458 11 2
237 16 24
343 2 10
482 14 12
351 3 23
367 15 14
266 14 23
165 0 7
6 2 5
431 1 26
131 10 8
346 6 28
260 2 4
151 3 15
327 15 18
206 0 22
211 0 7
456 9 15
157 5 4
485 12 2
174 0 13
119 15 6
468 7 11
479 10 10
1 0 14
334 12 21
257 11 10
193 1 1
252 11 10
323 2 20
23 12 18
280 0 13
318 16 17
143 4 15
306 14 0
29 13 16
216 8 5
38 6 10
428 14 25
276 7 8
414 15 2
262 11 1
112 2 8
257 7 20
160 11 17
456 14 15
265 9 8
24 7 17
419 11 10
268 5 14
342 12 3
193 7 8
141 3 27
38 5 5
325 10 7
394 14 28
208 12 11
493 14 26
482 13 24
451 11 3
52 6 2
24 4 9
206 1 4
397 5 2
29 2 17
236 5 23
324 0 24
108 11 5
277 9 26
98 5 9
445 4 26
420 9 16
426 4 23
131 2 18
486 14 13
256 12 18
118 5 1
209 9 26
179 14 0
369 12 5
443 3 10
170 0 24
468 4 18
485 3 7
23 11 23
49 6 1
336 0 6
215 1 2
96 1 0
388 13 1
230 4 0
247 8 12
70 2 25
186 11 18
360 13 19
450 3 13
146 7 5
193 1 24
309 4 20
147 15 0
255 5 8
354 14 1
465 4 16
446 16 21
136 12 5
365 14 10
464 8 17
127 3 1
49 13 12
400 5 12
421 14 20
223 15 25
218 9 9
204 2 28
355 10 1
60 0 5
234 4 2
386 6 21
372 1 1
121 3 24
261 12 11
335 16 8
244 0 12
257 9 28
33 12 12
350 14 25
185 7 10
377 3 22
237 2 28
168 3 15
243 2 28
365 12 4
8 16 11
215 5 6
330 15 6
115 7 3
391 8 26
20 7 6
78 16 14
189 4 7
245 12 21
369 13 9
288 2 12
233 9 5
190 14 21
388 16 27
396 7 7
406 16 18
322 16 9
384 15 8
498 0 5
205 4 7
55 12 12
378 14 1
91 8 18
195 1 25
55 0 17
406 14 26
327 3 23
281 6 14
375 9 24
293 2 21
178 12 15
267 5 5
24 15 27
193 14 18
78 3 0
101 13 19
299 3 15
377 15 13
178 7 0
302 9 14
387 8 2
309 15 15
23 15 18
208 14 26
311 3 13
215 10 21
53 16 17
298 15 19
468 5 23
479 6 22
474 1 27
475 8 25
90 16 25
285 5 28
159 1 6
317 13 0
128 8 9
100 5 2
375 8 22
430 9 5
142 2 3
174 1 1
238 15 22
149 14 2
423 1 5
399 13 4
443 0 25
494 0 4
224 3 16
444 7 23
437 4 27
366 3 28
34 4 23
263 4 13
316 8 27
122 11 28
42 15 23
157 15 4
360 3 0
300 10 23
482 0 11
210 6 8
256 7 10
352 3 1
232 9 13
54 6 5
153 8 23
417 11 10
131 10 21
24 3 13
367 6 8
254 3 18
125 7 14
397 16 27
115 3 16
95 4 10
461 9 3
48 4 21
352 6 12
298 6 28
288 3 11
455 8 5
346 16 4
318 12 25
130 3 9
128 15 3
299 16 9
115 8 16
350 3 10
160 6 23
421 11 25
268 12 27
312 3 19
216 5 3
495 3 8
171 15 23
110 9 19
407 7 0
102 10 27
325 3 22
324 9 3
126 2 16
283 4 20
349 6 26
423 0 2
21 8 19
74 16 10
479 6 28
25 15 10
456 12 11
430 1 5
430 2 8
371 12 7
372 13 26
217 5 14
136 1 7
1 2 6
151 9 4
51 12 28
487 9 1
211 7 6
149 8 3
408 14 5
343 14 16
35 3 22
238 14 17
39 9 7
183 2 24
106 5 1
294 1 7
351 10 8
415 3 3
349 7 23
204 5 16
49 0 16
475 14 5
140 10 11
85 4 10
447 0 2
463 15 7
133 16 4
38 5 6
497 16 8
222 12 26
112 12 8
381 6 18
184 3 25
335 7 6
358 14 5
430 3 22
96 10 10
206 9 28
109 3 22
24 5 11
65 12 9
459 6 13
364 13 15
119 8 2
428 6 17
51 13 18
363 16 24
389 4 26
70 11 14
98 16 4
232 0 10
406 3 4
38 1 20
54 15 26
389 14 8
100 8 27
140 3 6
0 10 1
439 14 9
314 7 12
65 13 21
420 12 10
407 14 15
398 8 7
199 14 4
472 10 21
292 13 3
416 8 19
405 16 4
402 0 3
36 15 26
162 13 20
208 3 8
337 12 28
141 0 10
305 13 0
401 14 12
352 11 8
280 1 11
96 0 9
246 7 5
321 1 17
382 2 13
234 0 19
67 2 7
174 9 20
290 11 0
59 3 5
126 12 21
331 16 19
228 0 12
405 6 7
346 5 8
182 14 25
408 3 28
62 11 3
35 9 7
139 9 22
277 7 27
409 10 6
392 9 11
369 15 13
490 4 22
417 9 28
220 9 15
486 0 24
344 5 11
340 5 0
388 13 18
79 14 18
15 14 21
43 14 6
188 8 1
76 9 5
89 5 27
41 7 28
398 8 17
87 8 10
472 16 8
427 3 19
450 12 2
484 6 24
419 5 19
30 8 0
244 2 12
84 16 12
28 9 10
241 11 22
287 16 4
472 12 8
172 15 25
65 3 10
416 9 10
66 0 5
480 16 0
119 16 0
57 2 2
207 7 9
82 7 10
372 12 19
19 3 25
137 9 7
484 1 27
87 7 17
25 14 22
389 14 16
29 14 20
31 10 15
240 14 10
209 15 27
70 11 3
148 16 24
227 0 9
279 2 22
63 15 22
15 3 5
360 0 12
113 1 18
436 3 12
29 10 6
367 12 21
141 1 3
218 4 4
387 7 15
285 12 14
116 10 18
19 11 18
74 5 10
243 11 13
88 0 2
99 5 18
150 9 19
115 13 14
346 16 10
359 1 26
308 11 25
204 9 2
327 10 8
258 16 26
259 2 10
245 6 13
118 14 19
229 15 27
143 16 27
143 0 26
324 9 3
343 3 7
284 12 6
489 6 9
170 6 24
58 1 23
245 13 19
10 15 28
359 13 2
36 6 5
233 16 25
248 3 19
305 13 13
132 6 28
66 8 12
374 14 18
6 10 7
269 6 5
26 9 24
196 9 20
440 12 25
72 15 12
17 13 19
497 16 18
497 3 26
215 11 22
133 6 2
11 10 2
59 12 28
99 12 18
307 2 0
453 15 26
15 10 27
76 16 5
363 10 19
122 14 26
72 1 3
80 10 28
438 14 23
271 11 25
377 7 0
135 15 15
309 1 0
1 8 26
84 2 11
347 16 26
355 4 13
116 16 5
127 16 10
100 6 21
450 4 0
476 1 12
68 5 15
310 15 5
247 4 0
492 9 5
43 1 28
224 14 18
412 14 26
83 12 18
439 15 15
341 8 11
13 7 0
483 10 25
40 5 24
212 6 7
381 2 7
447 15 22
49 10 4
444 15 9
381 9 13
25 5 11
483 2 16
402 6 26
177 7 5
186 12 15
68 15 13
204 6 14
176 2 16
206 15 5
408 14 14
233 4 15
477 6 3
362 3 10
290 9 17
22 5 21
261 15 8
99 2 15
150 4 27
490 3 2
205 16 17
450 2 23
331 1 3
122 6 23
112 8 18
130 12 25
373 10 23
333 14 25
66 14 17
343 16 6
245 10 14
351 8 3
73 2 26
466 7 16
6 4 13
110 2 4
246 4 6
390 5 4
36 0 24
250 13 10
244 5 17
449 7 4
93 14 3
442 8 15
263 9 5
460 9 27
83 5 5
411 11 18
47 10 2
50 9 10
41 1 5
100 2 20
476 5 14
46 14 18
470 14 24
117 13 27
430 11 13
360 8 13
278 3 8
155 3 0
251 1 17
389 8 10
218 12 6
259 12 14
241 15 22
110 15 11
314 9 10
413 6 6
280 5 12
144 4 16
430 0 26
37 5 13
247 14 8
222 15 6
216 5 4
134 12 9
63 9 8
69 13 13
338 9 0
439 6 4
320 12 13
393 16 14
479 5 2
27 1 10
37 4 15
250 5 8
256 4 26
9 3 4
269 1 25
210 15 22
309 13 5
24 9 10
367 5 3
357 12 2
440 13 7
384 4 16
338 9 27
292 10 25
315 5 23
348 0 7
394 16 25
427 15 27
358 2 8
127 3 2
352 7 5
473 7 0
100 12 0
349 16 3
238 0 18
184 6 25
359 9 16
327 1 16
21 12 20
1 12 21
263 1 27
123 3 27
54 9 6
388 6 8
253 2 22
488 2 7
409 11 3
287 12 10
308 15 26
423 3 4
448 0 2
214 0 28
298 13 3
201 9 7
45 0 18
170 12 4
453 1 10
337 0 15
52 14 1
160 3 18
90 3 23
92 14 0
200 13 20
218 14 16
356 3 15
257 9 22
246 11 13
495 15 27
363 9 1
52 5 1
319 8 13
64 5 26
236 15 0
125 7 17
43 8 17
231 6 12
189 14 3
253 3 11
106 2 5
270 5 12
406 15 8
464 1 10
132 12 16
123 11 13
92 16 2
440 7 10
267 8 13
219 12 7
214 13 15
180 15 12
73 5 1
212 5 8
63 11 12
7 9 10
412 2 1
46 10 17
386 16 0
164 2 22
149 5 3
389 15 6
484 16 7
350 0 18
108 1 21
94 9 22
275 12 17
154 10 13
372 15 11
492 1 20
456 7 23
11 2 4
92 15 0
405 12 16
24 4 15
394 3 15
155 15 19
442 14 20
36 7 4
92 9 19
138 6 7
235 2 6
122 14 21
66 4 14
126 4 18
396 2 24
374 10 10
458 13 18
84 8 6
114 15 6
379 0 5
8 13 7
110 12 27
444 13 0
268 7 23
214 13 5
10 13 24
424 5 7
301 13 23
210 6 28
262 0 24
335 12 12
112 10 24
476 10 14
76 4 6
11 14 27
371 2 12
92 15 26
355 16 17
225 12 18
259 11 28
404 16 23
16 7 8
337 13 6
239 16 12
62 5 11
230 15 2
470 13 14
288 15 1
38 3 20
286 14 3
152 11 3
315 5 8
360 13 1
394 9 14
439 15 9
175 12 27
397 12 16
371 4 11
204 13 4
270 15 22
180 4 17
283 12 20
364 0 5
375 11 15
369 9 21
244 1 12
476 3 6
447 10 3
70 1 8
175 10 18
221 6 25
303 4 26
381 4 6
488 10 2
460 11 9
168 6 26
119 4 28
259 2 5
139 16 18
231 14 2
348 6 26
70 12 12
457 9 13
461 9 28
423 14 15
368 11 9
344 9 0
80 10 19
406 8 13
266 6 10
407 5 9
179 1 16
331 8 28
359 7 11
132 2 21
130 10 9
420 14 19
258 3 27
260 15 18
38 11 7
473 12 6
154 4 3
374 14 28
126 14 2
286 14 10
367 3 14
364 15 20
51 9 15
73 1 6
435 6 12
52 13 0
295 9 8
497 0 27
459 9 18
398 14 27
375 9 9
33 15 22
499 14 1
326 2 19
272 3 20
8 8 14
497 3 1
327 7 21
64 13 8
313 4 26
265 16 26
135 9 7
426 0 26
368 8 11
257 1 27
391 16 24
221 5 26
79 4 23
438 9 14
323 4 3
97 5 7
140 7 13
191 11 23
125 0 13
66 7 15
139 8 5
335 6 24
303 14 17
235 10 20
102 15 24
455 6 5
415 8 23
404 14 25
160 4 13
357 16 11
248 14 18
453 9 10
230 8 3
90 2 1
76 15 7
0 0 25
161 8 10
125 11 22
316 7 1
475 3 4
457 10 13
355 0 14
468 15 2
363 3 18
298 6 23
271 0 7
403 9 8
1 9 26
221 8 22
226 15 13
143 10 22
435 5 4
419 3 4
384 11 27
432 1 17
471 7 14
286 15 3
38 4 4
18 5 21
182 15 21
404 10 28
111 13 4
166 14 1
240 1 21
352 1 21
300 16 9
88 12 22
100 15 7
290 16 8
418 9 4
62 3 22
153 16 3
441 4 21
146 0 11
162 2 3
118 1 12
174 2 19
0 4 28
145 10 7
38 12 6
66 16 10
464 14 11
134 6 24
414 16 15
395 10 14
362 0 28
424 1 17
87 15 5
182 0 16
163 12 17
285 11 28
134 1 8
2 15 8
36 3 7
334 6 22
164 1 19
415 2 16
106 7 4
117 16 7
17 2 10
0 6 0
472 15 21
205 14 9
2 15 3
80 13 15
197 16 9
213 11 4
429 8 21
382 0 12
74 14 10
273 5 15
319 1 3
469 8 3
125 14 22
140 7 24
301 7 22
432 0 22
398 16 18
211 11 8
329 11 9
429 4 14
261 5 10
369 12 10
473 11 14
319 8 0
6 0 16
199 8 14
169 3 18
218 5 24
217 15 4
236 1 19
443 13 0
473 0 23
469 12 23
25 12 23
226 2 17
145 7 16
54 6 23
431 3 0
31 15 12
232 10 22
42 8 3
208 8 11
373 0 4
483 2 28
153 7 2
18 0 28
434 3 0
278 9 16
474 7 8
166 5 22
110 16 22
176 11 14
241 4 2
488 5 2
201 13 21
358 15 12
494 3 5
406 3 17
115 3 23
317 14 16
65 13 7
339 10 27
110 4 0
273 5 5
442 8 6
244 13 20
193 9 7
410 11 26
237 10 3
196 2 26
444 10 25
164 0 2
55 13 2
67 0 26
139 1 19
417 12 18
221 9 6
448 7 14
186 3 6
66 1 22
423 13 24
113 14 10
6 11 16
78 8 18
486 7 8
434 16 28
112 9 23
250 2 12
80 10 5
291 10 8
275 14 3
25 8 19
311 12 19
143 5 2
287 7 4
348 5 22
272 2 13
31 5 19
436 8 28
161 14 0
245 12 13
459 12 20
481 15 25
254 10 7
368 6 4
160 8 25
474 15 18
338 7 21
227 4 9
430 6 17
474 11 11
308 7 8
429 1 20
316 8 15
256 4 27
299 16 8
360 10 7
67 14 10
284 13 1
262 8 16
442 2 23
391 10 15
336 2 4
413 8 0
342 14 1
181 3 2
283 7 3
29 16 10
197 1 14
1 0 19
153 3 24
191 10 23
53 12 23
243 11 20
240 16 20
209 1 28
333 15 9
495 12 26
145 5 22
73 4 24
296 15 27
285 11 16
251 4 14
402 4 7
29 14 0
489 1 6
264 16 11
9 7 9
199 5 4
320 0 28
87 6 3
292 9 1
359 12 7
433 3 0
398 4 6
312 15 8
271 5 8
308 7 27
447 16 15
28 15 24
303 7 27
212 3 26
204 4 5
298 9 13
111 1 28
138 10 20
112 11 1
370 8 14
408 2 17
273 5 9
337 5 14
204 9 8
279 3 24
151 6 20
9 0 11
127 13 24
110 16 11
287 12 14
98 10 14
387 4 26
318 14 27
195 0 8
181 0 7
372 4 18
215 5 26
343 2 7
478 8 9
308 2 3
438 12 18
202 6 21
166 16 1
441 15 7
29 9 28
170 7 25
114 2 14
292 7 19
349 5 16
307 13 2
275 0 2
208 2 19
150 12 5
392 14 6
146 16 25
73 7 13
256 16 6
492 11 7
280 7 26
145 8 13
412 0 0
314 1 21
490 9 3
122 16 17
9 2 12
262 4 1
14 6 2
167 16 25
492 15 5
241 6 12
4 3 5
247 4 28
410 13 19
356 10 13
367 13 6
248 4 22
164 11 11
324 15 10
71 13 12
487 15 14
169 9 3
481 1 19
195 13 12
330 11 1
218 6 7
443 15 15
84 8 22
279 8 15
30 7 16
86 0 15
135 5 24
3 4 17
26 1 21
116 5 15
336 16 9
406 3 13
39 2 8
166 12 19
321 14 20
473 2 23
276 7 16
441 9 17
320 0 6
231 0 9
478 9 7
88 15 6
14 5 17
310 3 23
351 2 13
70 3 9
430 15 27
208 15 9
453 12 24
463 2 25
130 10 5
475 3 24
373 15 2
216 15 25
76 5 20
179 15 15
133 0 20
37 0 24
184 14 27
127 2 27
393 10 25
187 15 24
197 8 11
443 8 23
151 4 26
117 3 0
130 14 18
221 14 7
252 15 19
454 8 16
183 9 16
121 8 11
164 7 19
34 5 1
112 11 17
372 14 21
83 1 3
248 6 2
208 13 3
286 7 28
59 9 26
126 6 16
125 3 23
13 0 24
477 15 1
193 7 19
462 15 25
386 7 15
322 7 21
264 9 15
77 12 27
330 13 7
309 12 11
466 15 22
295 9 21
443 10 12
68 16 18
400 3 15
254 11 26
473 3 15
210 5 3
486 15 23
264 12 0
35 11 10
214 16 12
151 16 1
205 6 20
60 1 6
203 2 25
145 13 5
84 6 8
59 6 19
320 8 8
414 14 5
15 15 9
450 14 15
495 4 18
53 14 1
495 16 6
273 8 10
84 10 5
12 11 28
0 15 13
303 13 13
418 0 24
335 13 23
21 2 1
124 7 12
486 4 16
368 13 2
299 8 28
425 14 21
39 11 18
439 6 20
149 8 3
351 13 8
99 0 13
216 5 10
375 7 6
385 11 0
410 4 22
491 9 11
406 4 26
376 16 28
47 12 21
339 4 18
422 2 4
421 9 0
492 12 9
170 7 0
342 5 9
472 15 21
127 14 23
341 10 14
181 12 2
125 8 18
219 9 9
124 7 17
425 15 4
212 13 12
79 1 18
443 15 3
157 5 22
406 12 14
230 0 3
409 7 7
338 16 2
201 15 4
19 11 27
326 15 1
244 3 16
240 1 0
250 3 13
463 15 24
181 10 22
90 4 27
28 5 24
486 2 10
261 3 4
198 9 28
134 2 21
113 10 7
85 13 16
368 5 10
390 10 22
134 13 15
387 2 11
253 3 1
58 16 14
107 3 4
225 2 5
440 9 8
497 0 18
122 0 17
10 2 17
376 16 4
375 7 10
187 12 10
244 6 24
478 8 23
400 5 13
400 10 9
472 5 28
400 12 7
124 16 5
183 13 25
85 5 21
64 9 27
25 0 2
9 10 9
231 2 20
182 8 25
191 3 15
145 10 6
220 9 28
110 11 22
37 11 14
95 15 12
423 2 27
31 14 28
138 6 19
3 16 19
300 13 10
50 15 11
368 7 4
466 8 0
330 13 8
429 4 18
171 0 10
261 12 18
195 2 0
331 12 27
395 11 24
176 6 8
260 16 20
24 15 25
281 4 20
219 7 2
453 14 28
170 3 19
280 5 20
131 9 28
325 16 16
409 5 20
33 14 14
228 11 5
157 14 8
99 11 11
459 1 23
246 14 17
132 7 3
183 7 28
8 7 18
478 16 17
196 6 5
291 15 12
295 9 17
112 4 7
377 16 2
294 8 15
411 13 6
313 15 11
433 14 28
168 5 5
382 9 8
211 6 3
346 11 26
153 8 6
326 3 12
82 11 9
288 6 23
284 10 11
9 9 22
149 9 9
322 12 0
47 6 2
131 14 13
16 16 4
219 16 26
497 10 15
272 1 21
432 10 14
398 14 11
317 9 19
74 4 24
141 15 23
120 2 9
422 13 15
358 4 7
264 0 26
200 5 22
328 13 3
495 14 28
222 9 23
113 2 22
155 8 3
468 3 9
384 2 1
8 5 23
211 8 22
211 7 9
231 10 22
254 12 20
293 3 16
405 13 7
426 14 24
290 3 20
398 5 11
59 1 9
360 10 24
145 8 0
225 4 12
322 5 24
315 7 16
145 14 3
424 14 23
90 9 8
49 0 6
446 16 19
205 12 4
115 4 6
198 1 26
138 6 13
25 12 6
420 5 26
59 2 22
306 14 3
214 2 2
483 0 24
396 3 6
63 3 12
6 9 2
243 3 26
69 0 24
183 3 13
91 10 5
139 13 26
398 7 17
89 0 22
395 0 15
492 7 3
304 11 24
85 16 12
458 16 4
177 9 23
381 15 7
332 2 17
376 9 8
162 9 14
201 15 4
210 5 8
415 3 6
97 0 11
258 10 25
319 8 23
11 4 10
288 6 7
93 15 27
495 15 13
26 12 11
487 12 0
264 6 25
367 0 24
227 3 26
79 3 9
443 15 4
67 16 0
80 7 17
357 3 7
72 0 2
365 14 25
105 14 2
205 13 24
91 3 12
106 4 20
131 14 20
135 15 21
433 9 0
461 14 4
431 15 7
248 15 20
43 10 5
113 4 14
332 9 28
316 13 14
360 5 21
158 16 25
42 9 21
301 1 12
289 3 22
78 8 28
31 3 8
265 6 8
329 12 6
315 14 1
446 13 3
228 9 6
149 14 20
64 11 12
168 6 14
182 6 21
22 16 10
54 1 0
227 7 9
78 1 21
157 3 19
189 5 3
438 5 28
220 11 2
98 5 11
71 8 0
226 16 24
159 14 17
469 13 3
20 11 21
243 5 3
257 8 3
492 12 4
362 16 6
10 1 3
262 12 23
304 2 14
368 14 14
425 3 22
328 2 17
250 7 16
342 1 1
120 8 21
49 1 25
425 14 19
496 12 4
274 5 0
214 6 16
395 5 28
380 4 21
94 11 1
89 2 27
133 10 11
227 1 17
329 9 22
181 10 16
318 5 24
241 16 9
284 8 11
54 1 13
313 5 1
459 15 21
447 1 20
383 15 19
208 0 3
425 10 22
440 13 26
78 6 26
494 15 0
90 4 16
162 14 24
416 8 1
9 16 3
419 12 20
86 4 27
257 16 5
455 8 14
350 0 18
323 1 18
29 2 23
409 16 1
360 8 28
172 14 23
320 0 24
346 5 6
28 15 23
12 4 21
496 8 9
361 13 26
89 10 7
9 3 12
448 15 7
358 11 9
123 0 11
245 8 5
135 9 9
137 1 7
131 14 1
486 14 7
254 4 10
408 11 2
385 5 14
454 15 11
493 5 4
405 16 5
61 15 25
64 0 1
412 0 14
369 9 27
274 3 20
246 9 7
180 6 11
349 5 4
295 0 5
57 10 21
453 10 22
319 2 14
315 0 4
453 13 11
367 9 20
312 3 4
272 1 24
190 10 15
204 2 10
332 13 16
370 12 23
451 5 11
427 12 5
474 8 20
52 9 25
440 12 24
400 10 24
291 8 5
308 12 5
272 12 4
250 9 21
59 3 2
318 4 11
160 6 12
432 8 26
242 8 1
83 10 7
486 15 5
197 6 0
73 10 11
278 14 5
481 14 18
273 14 5
269 15 10
224 16 17
376 15 6
224 3 14
77 4 2
485 8 6
495 1 13
39 15 25
406 0 19
220 6 7
384 7 16
153 8 4
488 10 0
52 6 17
222 6 28
224 10 2
83 7 18
325 4 10
343 4 21
105 9 27
412 12 1
280 15 1
360 14 20
82 3 27
95 2 0
255 1 13
491 2 2
84 7 5
8 13 12
191 16 9
307 14 26
165 13 19
109 7 21
305 6 0
264 1 16
223 0 20
382 14 9
463 4 8
478 11 3
19 3 12
200 1 21
359 15 8
371 10 9
182 10 25
16 6 10
280 0 1
388 14 21
40 9 26
420 6 11
320 14 10
153 14 20
203 15 7
227 14 14
77 3 15
32 13 18
481 7 21
393 12 11
433 3 19
216 9 1
325 6 8
153 5 10
203 2 11
32 2 18
117 6 23
447 5 6
23 0 24
354 5 18
248 2 22
274 0 11
480 5 2
75 6 16
63 3 5
277 5 6
136 16 16
248 15 19
359 12 26
467 9 11
176 0 13
126 12 21
260 11 7
132 5 8
90 9 6
446 11 14
416 6 13
85 16 20
378 15 15
430 4 0
99 0 3
46 0 0
422 1 13
127 4 14
379 1 17
75 11 25
275 2 16
285 12 16
217 11 8
87 4 7
256 13 5
146 5 15
407 11 12
120 2 26
350 15 12
104 1 28
443 12 27
144 7 23
64 13 0
357 6 1
8 3 19
318 8 8
470 13 15
257 13 7
398 3 2
246 2 26
344 12 23
222 5 11
341 2 21
388 11 1
389 6 20
189 5 25
256 4 9
412 4 25
192 10 17
195 12 9
181 15 1
414 12 3
155 9 15
328 14 0
157 10 26
27 15 2
296 12 0
394 2 9
37 1 19
108 11 15
425 11 7
268 6 20
281 4 2
256 10 12
320 4 22
50 3 6
426 1 8
118 6 19
180 10 13
233 4 6
72 8 12
484 11 15
207 10 14
241 16 18
301 9 15
359 15 27
358 0 16
326 11 11
126 0 8
292 16 10
379 5 0
399 5 21
144 2 16
377 4 24
381 15 14
56 16 27
228 6 15
463 12 17
351 0 25
110 10 25
201 3 26
244 5 24
94 10 8
150 12 4
49 8 13
12 6 8
246 16 4
186 7 10
389 4 23
486 15 23
113 11 22
141 9 5
498 13 14
261 12 6
218 13 15
20 8 7
349 3 18
40 11 20
71 16 21
241 1 23
233 12 14
433 5 2
280 3 27
229 9 10
155 14 22
244 12 5
279 9 27
496 2 1
324 15 1
282 6 16
41 1 1
67 0 27
187 16 25
357 16 15
290 3 11
217 7 28
74 16 19
257 15 25
348 0 19
130 9 1
150 7 2
111 12 11
365 1 17
200 9 9
497 7 13
191 1 26
330 15 23
334 4 9
261 0 5
295 4 23
352 8 18
220 14 16
454 4 27
26 13 23
358 0 19
178 0 6
82 11 7
365 2 25
466 14 28
309 8 17
440 6 15
71 4 13
401 4 15
292 4 8
11 12 16
96 13 6
481 4 5
320 11 26
31 7 22
280 10 26
293 6 0
257 13 8
437 16 23
254 16 19
322 14 12
262 6 15
489 13 18
80 5 5
409 11 25
214 2 18
42 2 16
306 1 17
64 7 20
427 7 6
16 15 9
210 8 22
240 4 25
251 6 21
264 4 9
159 7 5
346 14 2
288 9 12
173 13 28
108 13 16
379 4 28
72 15 11
415 16 9
428 0 18
176 16 11
191 5 23
451 6 12
317 10 13
417 5 5
450 11 11
454 1 13
243 10 9
157 12 7
312 7 8
496 2 12
432 3 12
236 2 1
452 12 0
422 1 18
78 13 17
112 15 11
412 14 14
497 12 23
68 13 8
215 14 7
458 6 20
22 15 4
115 0 25
112 12 5
360 5 5
221 5 18
370 6 24
339 14 24
452 16 23
368 9 26
143 3 11
421 15 17
445 2 21
212 12 26
49 3 21
217 1 7
98 11 4
385 10 12
480 3 19
335 11 13
467 11 19
144 16 6
444 5 23
7 6 9
95 2 3
357 7 12
435 5 5
436 7 0
107 0 6
329 1 5
126 11 1
239 8 23
318 13 10
149 12 20
296 3 5
249 6 20
82 16 0
383 0 20
28 6 3
57 13 4
232 1 23
66 8 8
350 1 8
304 1 11
81 14 25
45 15 0
100 5 8
355 5 16
98 6 18
386 6 23
434 2 13
108 2 27
477 1 14
157 8 17
10 2 6
329 8 10
450 16 13
32 3 12
21 12 25
18 16 25
326 13 11
295 15 24
360 6 28
430 9 21
357 8 6
417 7 25
331 15 25
27 11 13
148 16 22
62 2 14
446 16 27
224 4 22
474 8 19
431 4 23
478 8 28
450 15 9
481 13 13
35 14 4
42 5 27
155 8 19
358 9 13
93 14 17
146 8 28
17 12 1
226 2 3
362 4 4
218 5 10
227 15 17
80 10 14
358 10 11
300 3 4
378 14 6
268 12 4
27 11 20
187 13 7
72 15 12
112 9 8
75 12 7
421 13 8
9 5 23
381 5 26
261 12 13
187 8 17
445 6 4
495 16 15
110 5 5
277 11 7
23 2 25
407 5 0
116 1 9
392 16 22
109 9 9
289 15 14
117 3 19
228 15 2
393 16 15
229 11 18
189 10 17
353 3 19
136 2 4
306 13 15
470 3 10
58 5 13
75 13 7
13 4 21
12 7 7
472 3 9
111 3 14
122 15 27
347 0 10
337 1 6
44 0 12
238 1 16
83 0 1
8 1 6
240 7 14
369 16 12
480 11 10
317 14 25
228 15 12
7 7 3
73 9 2
111 9 3
370 3 12
313 4 1
47 8 18
361 15 1
356 1 18
135 13 20
168 16 19
394 5 11
409 12 22
210 0 24
231 11 23
401 12 11
208 15 4
23 11 16
85 9 19
24 5 26
157 10 19
440 12 26
434 5 15
422 16 0
271 3 18
311 14 13
236 3 22
359 16 17
41 16 22
432 6 8
141 6 20
489 10 16
306 13 12
311 1 13
45 12 15
107 11 16
255 12 5
360 9 23
446 7 28
297 9 20
314 4 1
227 15 19
430 14 6
15 15 13
310 10 0
126 4 14
233 0 13
252 4 11
412 11 0
145 16 6
437 2 17
98 4 0
487 1 0
122 3 10
15 11 24
86 1 14
119 5 0
321 8 1
26 7 10
389 2 12
196 7 15
273 12 24
422 14 25
4 11 3
41 12 4
231 0 27
21 11 12
231 9 28
248 1 25
366 13 26
355 10 28
358 12 13
466 11 25
417 14 14
210 10 5
86 6 19
19 9 2
151 0 15
291 10 11
359 0 2
366 16 27
108 2 11
107 12 7
393 11 24
38 2 20
234 11 24
243 10 8
313 15 1
306 10 20
125 3 10
363 15 12
440 11 0
467 12 2
242 3 25
377 13 25
392 16 11
252 1 27
62 14 16
341 16 1
281 13 13
493 15 3
275 0 24
294 5 23
436 0 3
297 5 22
253 10 22
342 12 15
173 16 15
129 12 26
137 9 22
449 16 28
288 6 28
284 1 26
24 16 25
486 4 15
56 11 28
414 14 4
350 7 7
249 11 20
155 11 15
336 6 8
211 6 1
258 16 23
50 10 15
27 10 15
445 7 26
289 1 28
5 11 4
300 8 1
482 16 13
199 9 7
0 7 14
301 5 18
40 7 11
254 10 11
494 10 3
85 0 22
416 12 22
262 13 11
36 16 7
147 3 2
196 9 2
476 15 28
425 11 18
421 12 26
385 15 18
318 7 22
176 13 4
382 0 27
52 15 26
141 0 19
234 1 10
7 9 22
201 0 12
323 12 11
453 15 25
468 3 14
248 12 13
164 0 25
14 0 7
83 3 19
52 9 28
139 1 15
77 15 19
147 4 11
122 2 26
208 5 16
65 8 9
394 10 9
218 14 11
10 4 25
132 8 28
495 7 27
195 5 2
367 9 12
477 12 21
70 15 24
71 6 24
198 3 1
290 16 12
374 3 25
428 12 15
3 10 18
244 13 12
402 4 18
349 3 13
272 10 2
76 8 21
292 9 12
272 15 26
237 0 13
412 12 16
40 10 26
215 12 14
55 9 25
146 5 28
168 3 15
489 10 0
103 1 26
252 5 5
79 12 13
105 2 4
224 10 7
110 13 13
8 15 14
260 12 10
347 2 21
471 6 23
63 1 18
341 11 19
71 2 24
379 10 3
484 5 1
75 6 6
396 2 26
449 1 4
396 4 23
41 7 23
421 12 26
43 2 15
416 1 14
397 6 13
470 13 4
11 6 26
148 11 26
299 6 18
195 11 26
284 0 16
167 5 12
115 1 22
362 3 24
230 7 18
281 15 15
155 16 5
145 8 24
318 13 7
437 2 14
277 4 9
364 7 18
255 13 14
273 2 3
338 13 17
237 8 10
370 12 23
473 3 16
99 9 13
356 3 16
182 13 14
150 6 20
298 8 18
186 8 0
174 12 15
174 1 14
262 4 9
49 6 13
444 16 5
422 10 21
12 2 2
157 8 24
17 13 26
109 7 20
486 2 17
386 14 20
241 16 2
434 10 11
79 1 10
118 5 28
298 10 21
444 16 10
386 16 11
94 4 3
496 2 12
111 4 0
88 11 3
344 13 9
134 9 9
262 3 27
111 0 4
398 0 17
347 12 25
116 2 3
272 10 24
86 2 16
484 0 18
309 5 28
262 16 14
390 0 12
163 12 8
419 2 11
447 11 19
393 10 10
313 1 21
127 14 1
92 3 8
52 14 15
100 10 14
259 3 11
222 9 3
86 12 5
286 4 1
107 5 6
488 8 22
439 12 16
183 1 8
25 2 3
498 16 26
393 2 0
488 16 22
441 4 21
233 10 16
11 9 20
419 3 9
36 3 10
250 4 28
242 1 23
181 13 18
482 5 4
51 13 27
132 4 8
442 16 5
232 6 24
79 5 12
203 3 25
89 10 0
14 13 13
433 16 3
214 16 8
193 14 11
266 15 7
60 13 14
94 5 28
216 12 28
418 2 26
239 16 16
29 4 20
124 3 21
5 11 3
362 3 22
237 3 8
196 2 16
260 0 24
92 3 8
163 11 15
442 4 7
439 15 4
148 3 5
375 10 1
171 10 0
267 1 28
41 6 13
142 15 19
374 3 20
495 11 0
264 4 14
242 15 7
203 10 1
228 14 5
16 2 19
202 10 21
473 15 21
254 14 7
203 7 9
292 11 0
214 14 5
283 11 0
56 4 23
218 10 15
448 8 13
78 5 18
351 13 19
81 3 18
465 14 9
134 14 5
325 14 14
297 15 12
32 12 21
144 10 20
18 9 8
308 0 22
55 3 1
152 10 3
401 2 21
16 0 14
373 4 25
381 16 21
244 9 3
14 16 1
461 13 10
392 7 14
356 7 27
321 15 12
465 10 1
312 16 0
394 11 26
427 7 28
104 8 3
22 4 20
112 11 12
90 11 12
103 0 4
313 15 8
25 15 21
479 13 3
448 3 28
144 9 3
75 8 15
333 10 21
373 0 7
260 8 19
45 15 20
467 14 11
128 1 22
38 16 25
57 15 13
72 15 2
174 1 17
100 8 26
143 16 21
375 16 9
115 3 20
294 9 1
476 13 9
357 14 23
267 9 10
318 4 19
7 12 8
350 3 19
405 7 26
368 5 28
337 2 5
452 11 1
360 1 15
313 10 17
321 10 4
339 2 8
243 13 18
34 13 28
494 7 7
168 14 14
223 6 23
182 12 4
44 15 15
377 5 16
381 13 27
241 8 9
195 2 1
358 3 28
330 13 26
403 14 6
465 5 26
33 3 20
360 8 4
383 13 18
406 1 16
68 2 3
42 0 5
437 7 24
51 6 3
14 10 26
329 9 14
470 8 14
420 3 23
340 0 12
307 5 9
226 16 2
64 11 10
421 0 11
395 12 23
211 11 13
242 13 27
174 8 16
405 11 1
97 2 20
465 12 15
168 15 25
1 14 6
492 10 5
257 16 26
148 12 3
218 14 21
80 1 13
101 0 10
50 5 12
338 11 0
274 7 5
185 4 25
191 5 11
28 0 18
127 3 14
167 12 19
472 5 20
286 7 17
390 8 17
308 15 24
16 9 25
355 5 8
234 16 6
458 14 23
334 10 4
392 9 3
246 2 11
485 14 3
201 1 21
318 8 27
480 13 8
391 14 0
67 0 2
369 12 25
434 14 28
444 16 9
441 10 22
31 13 3
460 9 9
322 8 25
334 11 8
135 4 26
247 7 27
359 8 23
439 10 16
31 3 6
130 2 4
129 0 26
380 1 0
381 13 19
104 4 8
206 15 21
467 4 3
234 1 5
62 16 12
91 10 6
40 11 28
169 2 18
377 10 23
400 0 25
76 2 16
427 2 2
96 4 13
37 16 28
407 2 27
62 12 28
126 16 23
214 5 12
464 4 15
285 6 2
410 1 11
282 14 12
150 14 21
283 3 19
244 4 8
482 16 9
1 0 9
427 16 2
481 13 21
343 0 11
494 8 26
412 4 26
2 13 12
75 9 27
410 6 2
494 12 23
470 12 0
435 4 10
353 7 21
105 16 14
2 4 27
168 13 15
102 12 12
269 9 18
498 6 1
251 5 4
119 11 12
352 4 13
40 12 15
284 15 9
171 5 7
316 10 19
337 15 9
19 2 6
111 4 19
261 15 11
373 3 24
115 14 20
44 6 8
164 7 23
4 5 18
348 12 11
173 5 18
375 7 10
388 3 11
135 10 18
285 7 3
7 10 27
262 6 9
343 1 4
438 12 27
26 15 8
186 13 8
481 10 27
57 13 15
452 8 4
28 10 13
13 3 22
240 1 12
207 11 26
62 4 21
126 16 27
241 12 7
281 12 26
187 10 17
454 2 12
184 10 19
489 2 14
404 1 11
329 9 21
210 3 22
259 6 14
308 2 21
317 8 20
378 5 12
461 13 22
481 15 11
365 7 27
260 5 25
464 3 11
276 7 18
52 15 21
312 14 21
202 5 20
156 11 14
37 3 7
197 0 26
153 5 21
318 6 14
437 7 21
403 15 0
291 1 22
493 9 20
474 9 3
80 10 0
155 0 25
445 1 21
389 8 14
185 4 25
338 5 18
272 5 26
201 6 16
118 13 0
300 5 22
297 5 7
55 16 24
168 2 16
54 14 19
413 4 7
0 1 28
231 0 10
376 5 0
393 13 5
181 11 8
343 8 20
348 16 24
306 15 11
43 2 0
256 14 14
120 2 3
287 0 13
269 2 19
347 9 9
460 14 3
47 16 10
316 2 16
321 9 13
235 2 19
135 13 5
10 13 28
285 15 26
119 3 19
77 0 19
316 14 18
364 4 2
445 8 24
159 15 1
499 3 28
209 10 15
235 0 9
230 15 17
33 1 17
317 15 24
76 14 17
31 14 3
233 16 5
251 2 4
126 0 27
191 2 1
212 4 6
442 8 27
171 13 11
146 13 1
390 11 22
410 10 14
269 0 27
353 14 12
400 13 26
324 2 24
138 14 10
319 7 10
386 3 15
3 0 4
91 14 23
81 0 1
267 8 26
21 7 22
422 12 9
374 12 6
220 7 24
264 8 21
281 11 24
394 9 20
216 9 18
368 9 28
214 16 1
147 3 17
93 5 26
106 9 24
141 3 17
32 14 22
267 6 6
441 16 23
195 12 6
394 13 13
310 13 25
33 9 24
467 12 27
452 13 7
231 4 19
175 7 20
302 3 3
101 2 17
468 16 28
211 6 11
459 1 15
213 11 18
155 0 18
136 16 24
29 11 12
210 12 14
422 7 25
200 8 22
163 3 0
278 0 14
58 4 23
456 15 20
264 0 6
239 0 19
28 16 4
333 0 5
445 12 18
213 14 27
438 6 20
414 16 12
151 4 25
317 0 9
174 10 14
258 0 20
497 1 15
302 8 27
72 12 7
186 11 25
484 5 0
121 9 6
91 0 8
134 6 2
371 16 14
64 0 8
90 1 15
237 3 22
137 11 24
224 8 26
441 2 5
484 9 8
48 14 12
171 7 21
325 7 20
384 0 10
19 9 28
342 13 10
189 1 19
205 9 5
36 1 3
281 13 8
461 6 25
2 1 28
67 3 27
492 6 20
261 8 21
228 7 15
0 1 27
274 12 7
444 1 26
396 6 18
262 11 6
59 7 14
471 2 16
346 14 6
423 1 20
388 13 1
186 7 18
324 4 27
183 11 22
262 11 3
245 14 12
187 7 0
298 15 13
276 15 20
43 0 23
177 5 15
92 5 8
30 4 20
111 10 11
348 7 10
355 6 13
451 16 20
84 6 5
318 8 15
43 3 22
286 10 5
480 3 11
189 8 23
309 12 5
151 8 19
126 11 25
71 4 12
34 14 26
136 4 17
209 16 2
275 3 12
153 7 12
106 3 2
69 0 14
377 2 15
178 8 28
460 12 2
437 4 27
478 15 21
471 9 6
210 11 17
494 6 14
92 7 5
415 5 0
418 14 18
208 5 11
241 9 24
290 2 7
98 4 5
57 8 16
455 4 25
249 10 28
353 7 20
376 12 25
488 12 4
455 14 0
133 16 11
154 9 5
204 7 5
19 10 7
108 10 22
288 16 5
198 5 24
47 8 3
301 4 24
371 13 25
350 7 15
202 8 19
242 1 7
252 4 21
131 15 8
319 15 16
3 3 3
219 10 0
107 6 16
243 11 3
158 2 0
281 15 24
212 7 10
173 3 12
262 2 2
144 0 10
481 4 20
425 7 26
137 6 21
123 9 6
73 13 5
164 7 27
333 5 9
321 4 23
13 4 2
256 1 13
274 11 1
72 7 12
246 12 6
36 3 17
221 10 27
231 11 1
175 10 22
404 13 17
321 14 17
56 4 12
19 4 20
290 2 6
101 0 23
15 5 15
430 4 9
151 12 15
443 3 20
10 12 3
442 15 5
283 1 1
149 14 25
112 5 6
442 0 14
381 7 8
372 15 6
31 5 4
493 4 20
356 5 7
278 16 1
181 16 17
443 3 18
104 6 20
469 15 16
311 7 13
400 4 26
495 16 25
277 8 8
298 14 20
260 14 27
6 4 2
200 5 13
351 13 7
118 14 28
28 4 16
362 16 24
438 11 3
495 10 10
31 1 7
3 7 15
462 1 20
463 7 5
344 10 18
127 2 6
239 11 7
358 15 17
497 16 12
78 6 12
42 1 28
400 13 13
146 2 0
408 8 25
44 6 9
167 3 20
242 15 7
71 3 10
134 15 3
493 6 23
246 9 8
45 12 24
228 8 23
491 3 14
297 7 25
170 8 20
268 14 4
6 9 6
372 5 21
59 13 4
303 7 20
461 1 27
99 8 7
109 11 6
83 1 7
159 0 23
23 2 24
230 9 0
308 11 26
228 16 5
226 4 2
67 0 6
230 3 19
47 0 12
348 14 0
79 8 22
476 13 16
82 5 12
171 7 9
492 13 9
58 11 9
211 2 10
55 5 10
265 14 24
182 15 23
229 6 22
140 8 9
313 4 16
75 11 19
361 6 17
355 3 22
380 9 9
181 15 3
217 12 19
390 16 15
69 2 13
204 11 13
266 2 1
436 5 17
153 1 9
113 12 1
27 2 5
88 1 17
440 0 23
303 7 26
289 11 15
466 16 24
59 13 14
303 0 26
315 15 9
209 10 4
188 6 14
477 4 4
88 16 19
133 0 27
341 1 22
333 5 15
311 13 27
465 6 6
498 7 23
170 16 0
463 2 12
206 15 10
426 5 19
401 1 2
374 13 12
259 11 3
232 8 28
39 10 9
370 12 15
141 8 4
258 8 14
453 9 27
205 1 13
174 16 23
85 4 27
100 12 25
82 6 25
204 3 24
33 7 12
109 11 21
216 11 7
499 10 1
150 0 20
172 1 25
13 14 10
138 13 5
341 2 8
360 3 4
52 14 27
275 14 26
383 14 18
85 10 27
195 13 0
351 5 27
211 6 4
50 6 5
273 13 14
381 15 28
485 10 9
182 7 24
410 6 12
143 4 28
69 3 0
135 14 7
191 1 17
147 3 0
181 12 23
95 8 14
483 15 15
458 2 4
96 7 19
235 11 10
364 8 10
1 9 7
410 2 23
305 7 24
225 5 18
171 4 11
496 9 5
450 0 7
243 8 17
142 1 7
416 16 18
484 15 28
40 6 22
409 3 22
165 3 16
474 16 27
480 9 13
254 6 6
255 16 2
113 9 6
177 1 14
392 12 24
276 3 16
477 6 0
389 7 4
239 12 4
196 4 27
393 6 9
152 14 21
321 5 18
261 1 1
279 11 27
64 8 2
495 16 3
39 9 17
422 7 16
316 7 8
282 11 6
203 6 16
297 7 24
152 9 15
207 4 17
335 6 27
163 6 6
82 13 6
195 5 26
131 5 8
275 7 22
289 1 4
192 14 26
6 6 23
194 4 23
311 5 2
284 9 21
232 1 1
301 16 18
180 16 9
253 3 15
385 8 14
233 7 15
349 1 23
80 5 27
453 11 2
99 14 18
346 3 8
83 6 28
148 8 23
450 14 20
227 12 21
462 6 17
21 5 19
103 16 7
23 10 6
184 1 24
165 7 2
54 0 12
9 1 28
221 7 2
368 7 11
314 16 26
219 11 25
332 4 2
244 15 26
169 10 1
306 4 1
159 12 28
454 4 16
439 10 26
421 7 8
61 16 3
294 0 28
487 16 26
437 4 3
220 8 14
11 14 28
309 0 11
469 4 4
186 13 2
385 10 4
200 9 1
252 4 25
150 9 19
176 12 27
79 7 9
77 0 27
356 0 12
221 6 1
218 1 28
108 3 18
192 4 25
45 6 22
210 8 17
16 0 5
132 13 24
11 3 24
165 8 16
7 6 27
303 12 1
123 9 13
230 6 3
446 5 0
106 1 7
257 4 9
158 11 27
380 3 1
418 5 12
189 2 19
282 7 2
417 10 1
48 1 25
438 15 7
366 0 14
37 10 6
230 10 24
55 11 1
443 11 4
11 13 23
75 3 5
107 7 10
352 2 25
270 3 27
8 7 16
249 2 27
338 5 23
152 15 26
367 15 9
391 2 0
193 11 3
110 14 23
448 8 24
85 10 7
21 3 22
67 14 6
403 4 25
399 11 28
384 8 21
243 11 5
49 2 21
153 7 23
147 2 12
402 10 25
229 10 19
35 12 22
25 12 5
80 15 27
30 7 23
211 13 25
422 7 7
499 14 22
266 8 18
217 9 24
284 1 24
486 2 22
267 8 7
479 13 2
334 7 16
328 6 8
137 3 17
5 2 21
144 10 16
164 3 7
269 7 10
348 11 17
167 6 27
69 16 16
34 0 12
131 7 24
434 13 1
193 6 3
182 5 2
487 11 20
292 9 3
360 10 20
114 13 24
440 15 6
135 13 8
228 11 20
325 6 17
360 5 14
247 13 18
192 14 17
423 8 19
232 14 25
475 2 4
347 0 27
261 0 21
150 11 5
88 6 19
469 16 25
359 6 25
14 15 8
296 12 28
66 9 16
389 6 0
87 9 14
30 2 28
218 8 14
154 9 26
157 12 7
211 4 6
499 5 14
80 0 28
185 15 10
364 13 20
456 8 28
404 4 23
461 10 4
40 4 5
182 2 21
335 5 10
382 4 3
162 13 17
216 1 25
110 7 22
124 0 8
19 15 23
50 16 13
476 8 19
87 2 24
250 5 26
227 4 16
270 9 7
117 8 25
306 5 15
70 10 15
376 10 10
138 12 28
480 13 18
253 15 6
488 11 21
465 10 28
251 13 8
32 2 3
205 9 18
157 5 16
266 8 17
80 3 16
122 15 28
441 6 28
463 2 9
495 15 26
223 9 18
322 1 8
415 7 24
175 14 1
461 5 26
153 14 10
143 4 9
389 0 10
95 5 11
35 12 11
229 14 25
482 1 14
429 15 26
53 9 22
215 5 16
276 8 14
240 15 9
3 6 13
397 13 1
390 9 25
330 16 26
337 15 7
222 12 27
262 13 23
210 1 2
228 6 20
160 15 2
351 1 13
114 13 23
263 3 4
12 16 11
69 2 18
101 11 4
388 1 19
264 0 13
149 16 11
181 13 17
369 15 22
208 7 0
263 5 22
496 0 2
147 2 26
189 5 2
338 13 6
215 14 2
101 14 1
449 10 13
140 14 13
441 7 0
349 5 12
166 9 24
324 7 11
44 11 27
341 8 24
424 12 13
263 1 13
446 12 1
134 8 28
464 15 13
110 12 6
41 2 19
350 7 0
178 6 4
159 9 26
23 0 27
454 1 3
473 14 0
195 3 27
46 4 24
110 13 21
204 16 20
170 15 26
252 14 17
494 4 3
54 10 27
128 11 18
327 16 26
77 13 24
313 16 25
467 15 26
382 15 24
3 14 17
180 11 27
225 7 13
68 14 24
335 1 23
293 12 23
211 15 2
460 9 3
28 5 6
356 13 21
430 15 15
389 7 3
163 13 27
335 12 14
371 4 9
491 1 9
55 10 21
315 2 9
346 16 19
401 13 3
3 14 24
258 12 26
211 0 1
131 2 17
61 15 13
4 1 22
411 8 24
284 1 18
337 16 5
498 13 15
415 4 0
411 6 14
461 3 27
342 13 18
239 1 21
405 2 4
466 4 23
393 0 15
380 2 22
492 10 16
475 12 26
271 10 28
107 13 14
462 6 15
203 7 5
238 2 15
165 16 28
450 1 23
393 12 23
71 8 19
112 8 8
162 2 16
465 6 5
127 15 23
89 12 15
96 2 17
244 5 2
478 14 21
472 4 12
426 5 13
276 8 2
76 8 9
492 4 12
321 7 25
379 15 16
62 10 20
488 13 16
133 15 26
170 8 24
426 4 25
150 11 19
478 14 12
457 8 11
401 15 1
164 10 17
385 14 13
9 14 27
27 11 12
349 16 19
293 7 7
332 4 23
30 4 22
480 12 10
315 14 19
202 9 8
203 2 5
106 3 23
308 1 20
356 11 25
173 6 27
322 3 5
413 12 20
329 14 14
3 4 7
58 8 12
352 2 6
81 7 24
255 16 6
74 11 5
397 4 20
173 3 13
224 5 21
1 8 27
50 4 17
366 14 17
196 12 20
352 1 15
103 14 11
161 16 13
223 2 14
85 15 20
356 4 21
401 10 12
487 2 19
411 9 8
416 0 14
209 7 4
10 2 14
168 10 12
119 3 26
124 6 10
44 16 9
201 13 8
225 14 16
468 14 9
116 2 13
326 6 25
188 14 0
50 12 8
348 12 20
71 10 20
414 16 17
488 10 18
250 9 17
12 7 28
35 12 19
12 15 4
366 15 18
146 2 11
381 12 25
276 0 24
231 4 7
385 2 26
420 14 16
294 14 18
246 12 23
347 5 8
93 10 19
268 0 6
203 4 22
283 3 27
81 8 28
187 15 22
301 4 22
72 14 7
163 5 11
206 14 13
138 14 8
359 8 5
459 9 27
439 6 20
274 14 1
33 3 27
471 10 5
419 15 22
105 9 17
367 9 3
456 2 28
115 0 12
377 10 11
251 13 17
306 16 12
10 14 4
338 8 9
114 6 23
213 4 12
366 10 12
120 13 1
203 8 13
42 4 8
453 2 10
73 14 23
59 3 1
437 2 11
100 0 4
417 10 0
127 7 25
347 15 11
95 5 20
170 2 3
72 3 11
240 11 1
60 12 27
473 5 15
490 16 19
426 4 17
58 2 20
17 4 16
350 13 24
29 3 18
314 11 14
451 14 11
96 10 26
282 2 16
59 7 14
215 3 13
487 15 11
409 12 5
140 5 5
427 3 16
371 16 17
30 2 28
126 9 26
41 15 25
205 12 13
128 1 11
331 8 2
118 16 21
285 12 9
220 12 27
224 7 24
201 8 17
232 5 1
52 15 16
392 10 7
393 5 25
446 16 12
205 15 12
287 3 22
352 15 25
347 0 19
169 12 16
157 8 3
72 15 0
337 4 10
38 5 27
160 4 23
414 8 16
73 8 10
124 1 27
300 14 10
496 13 1
221 10 15
396 6 24
438 14 19
163 8 0
34 1 2
289 5 1
262 4 0
390 12 12
190 7 2
42 16 9
223 9 16
100 4 12
457 2 9
359 11 1
77 9 28
491 16 2
385 4 16
307 1 24
276 16 22
104 1 17
345 7 7
482 7 13
109 5 23
478 15 13
358 10 10
118 8 1
84 3 1
372 7 19
290 8 24
422 10 5
195 15 20
162 9 14
98 1 19
48 10 16
329 10 26
126 3 26
458 9 21
252 14 2
190 6 27
476 1 14
213 6 27
395 1 27
261 8 15
118 8 13
217 7 27
73 11 7
420 14 18
232 9 19
266 9 9
299 3 14
485 2 26
404 11 14
433 14 6
273 16 19
50 16 19
166 6 25
267 15 17
391 15 16
146 9 4
406 12 28
408 13 18
313 0 15
339 11 2
267 8 7
325 10 14
463 5 8
27 3 9
251 13 22
492 6 13
42 8 3
325 2 19
378 8 9
452 9 1
181 11 2
45 7 12
391 4 20
334 9 6
49 0 9
394 4 0
86 7 12
23 4 20
321 3 16
162 6 25
14 0 26
301 7 12
40 15 13
270 8 18
393 9 7
401 11 4
44 2 1
198 14 27
220 1 23
50 10 3
249 8 27
410 2 19
163 15 5
201 6 3
191 8 20
51 16 2
491 7 15
252 13 9
382 2 13
292 15 20
355 5 2
230 7 25
123 11 4
321 0 24
437 4 9
479 7 2
91 7 15
130 3 2
35 0 19
71 11 16
82 12 21
344 1 22
328 9 23
243 3 19
478 15 21
478 2 7
172 3 14
322 11 11
84 15 4
131 4 8
396 16 17
190 16 6
129 9 19
247 13 21
209 14 13
1 4 17
350 0 0
209 1 21
432 10 22
457 3 12
187 9 6
130 2 6
424 5 24
100 11 5
264 2 16
376 3 6
157 4 16
179 6 0
444 16 13
429 15 0
66 14 27
296 13 17
359 5 6
360 12 6
374 5 23
150 3 26
475 6 6
294 4 23
272 10 10
319 15 1
339 0 15
374 2 25
402 10 28
152 1 12
300 6 4
357 13 23
270 11 18
477 15 22
130 7 27
95 11 12
294 3 21
426 15 0
70 7 5
291 9 2
359 14 17
338 0 3
467 4 20
35 5 4
334 10 24
308 4 0
301 2 0
253 0 4
173 8 10
65 6 9
3 1 21
324 10 7
312 8 6
19 7 4
118 14 13
251 4 9
222 11 16
408 10 3
457 12 25
398 5 12
88 3 20
114 15 25
49 7 3
410 16 19
221 11 20
358 11 10
290 15 20
97 11 18
429 5 5
79 2 11
339 9 2
142 15 24
193 14 7
449 13 4
415 8 28
161 3 0
134 11 23
94 8 21
299 0 7
227 16 3
360 9 7
219 16 1
434 13 14
141 13 9
436 10 27
447 2 13
185 13 19
300 13 12
310 16 20
332 6 28
407 3 22
210 16 19
186 12 18
104 15 5
113 12 18
239 13 4
445 7 28
349 13 23
161 6 1
387 16 9
321 6 18
439 6 26
496 9 5
464 2 25
217 14 15
162 6 0
112 9 23
156 16 6
107 8 1
117 0 12
21 1 19
144 13 19
139 13 13
76 16 0
141 16 8
5 7 12
172 10 15
130 5 1
153 8 24
303 9 16
78 8 5
58 16 9
479 0 0
359 13 4
313 14 23
1 15 17
172 11 26
341 6 13
330 6 7
132 3 13
141 8 6
430 5 26
87 4 7
131 15 1
239 0 21
451 5 3
478 16 4
435 6 23
382 4 20
464 2 3
184 1 15
306 4 23
495 2 24
456 2 22
28 1 5
433 5 5
184 14 11
399 8 27
78 10 5
370 2 2
192 5 23
37 9 24
330 14 11
283 9 5
280 14 7
430 11 15
466 4 11
39 7 0
352 2 15
378 7 26
276 2 18
364 10 15
203 10 0
478 6 8
479 0 21
379 2 9
462 8 17
214 11 8
283 15 17
452 15 0
369 12 2
64 11 0
180 3 4
446 2 8
195 9 20
284 6 18
54 3 28
59 16 10
196 6 15
96 13 21
347 4 20
68 13 28
167 9 3
193 11 28
126 6 16
428 6 25
241 12 7
50 0 7
27 7 19
298 6 22
223 9 8
176 6 0
188 6 19
181 8 28
386 12 20
73 11 23
378 3 15
12 8 10
253 9 14
274 8 22
195 15 10
122 1 10
39 3 13
478 15 5
293 7 2
168 2 22
39 4 12
409 6 19
252 3 24
204 7 6
376 2 2
155 1 3
303 5 18
227 4 1
141 8 1
375 3 16
282 13 24
143 2 3
112 10 20
382 11 24
259 9 4
215 4 24
303 9 6
225 3 15
478 15 8
194 0 17
302 9 3
44 10 5
301 8 20
457 5 24
396 10 25
68 6 20
36 14 22
83 8 27
175 2 8
264 9 22
104 2 17
460 4 23
392 6 15
279 13 11
163 2 3
92 2 7
495 10 23
428 15 23
403 1 0
451 15 23
371 3 21
104 7 21
374 8 6
301 11 24
462 16 12
130 11 20
310 12 11
74 1 24
53 7 21
178 10 12
69 8 22
491 5 2
132 9 16
13 10 19
398 1 25
245 1 14
371 1 26
449 15 24
385 1 28
198 13 4
383 4 4
20 11 0
74 12 2
157 16 14
62 12 19
5 14 19
337 1 16
424 4 22
396 11 1
54 15 0
238 1 19
446 13 24
307 16 28
312 13 13
236 8 19
5 1 13
182 5 3
38 11 8
209 15 3
15 4 25
380 16 10
354 14 23
389 1 24
137 0 25
129 14 25
387 13 0
448 6 12
9 4 7
352 6 17
180 14 21
80 10 5
57 0 22
89 6 14
384 14 27
51 2 3
448 4 15
306 7 25
361 6 14
333 5 10
378 10 26
490 2 18
461 6 13
30 1 28
21 3 21
97 14 12
347 15 9
459 4 27
82 14 17
482 4 18
387 10 24
368 13 5
26 15 19
136 4 0
235 15 1
375 11 17
172 13 8
113 6 12
365 4 8
367 2 9
481 4 27
209 12 21
442 3 17
215 1 9
476 9 25
39 11 27
32 15 20
263 6 9
374 11 3
321 2 10
287 16 0
217 0 0
108 15 18
260 8 27
366 12 6
135 5 27
84 4 6
84 13 12
469 9 17
392 15 22
88 10 6
395 15 21
497 12 21
83 0 18
449 8 14
120 14 23
466 6 19
471 5 14
115 14 14
479 9 2
433 1 3
202 7 4
497 10 18
7 9 22
328 15 9
143 10 9
499 14 24
299 6 0
180 2 7
322 2 18
326 5 3
255 15 18
385 11 19
62 10 13
246 10 20
258 14 25
275 0 24
41 5 8
146 4 3
306 15 4
354 8 11
141 2 21
304 4 19
270 4 7
229 14 5
32 16 17
475 1 7
73 15 4
357 7 14
131 3 11
459 5 11
187 12 7
367 1 16
133 13 4
493 12 11
8 16 0
345 3 16
476 14 27
394 13 11
255 16 8
81 4 18
223 1 27
46 10 27
197 4 15
423 7 2
448 9 0
399 14 24
107 0 23
485 8 11
371 15 8
319 8 6
496 2 15
92 14 10
71 4 9
237 1 17
281 12 1
482 0 11
275 14 11
149 4 10
185 14 20
384 0 12
314 9 17
176 16 22
272 13 22
233 0 2
472 15 7
7 2 10
166 3 14
414 8 16
81 4 25
159 7 18
115 2 11
29 4 20
341 7 12
131 12 17
184 3 2
332 9 1
467 5 11
150 11 11
0 11 18
79 16 10
378 4 27
318 2 15
82 6 5
186 12 26
304 2 24
123 8 27
418 14 27
194 13 15
256 13 12
366 1 25
89 10 11
184 9 18
489 10 22
211 7 8
336 8 2
384 10 19
166 13 28
179 7 21
133 6 1
371 2 13
85 10 20
15 2 26
405 14 25
358 10 10
439 9 7
27 4 18
196 3 16
208 2 16
214 9 19
61 12 20
201 15 23
432 6 18
450 13 24
458 8 2
189 9 16
53 7 7
221 1 18
422 4 0
495 5 22
342 0 18
302 9 8
373 2 12
363 12 12
59 4 14
131 14 26
491 0 11
54 1 4
463 6 20
292 16 13
250 0 26
256 10 5
466 15 25
372 7 24
412 9 27
473 1 11
438 2 12
158 8 26
30 5 4
161 1 16
309 16 25
294 14 10
168 9 24
43 14 6
205 8 17
106 7 7
156 15 27
135 5 27
26 8 3
460 3 23
321 6 13
143 3 14
441 1 24
122 0 20
270 10 3
33 16 6
476 15 16
224 11 13
414 16 8
168 11 12
403 13 1
62 1 16
64 10 7
76 15 9
362 7 9
83 12 18
27 8 22
487 4 17
180 2 21
24 1 25
291 7 28
450 4 28
59 6 10
319 0 10
486 7 22
431 1 11
352 15 3
498 5 0
431 10 9
435 10 6
349 6 3
416 1 11
235 1 7
317 8 27
48 8 4
308 10 14
5 1 23
67 12 16
65 14 18
260 10 8
358 2 4
495 1 23
425 2 0
321 4 20
64 11 5
331 5 15
137 11 26
119 2 10
260 3 22
435 14 3
35 3 28
445 0 23
312 13 9
380 8 24
45 5 20
412 14 25
4 5 7
339 16 6
111 2 13
413 15 19
402 0 13
299 1 4
183 14 13
243 14 10
305 15 18
288 12 1
257 8 14
335 13 19
382 10 22
381 11 12
121 5 18
237 5 16
177 2 26
417 11 24
40 12 11
44 15 28
296 14 9
452 12 20
282 11 13
137 15 2
242 0 18
125 9 18
490 5 25
214 15 17
443 1 2
215 16 17
19 8 20
198 5 18
190 1 26
311 9 7
14 11 11
269 16 10
292 6 20
132 6 8
101 12 2
353 3 14
397 11 6
151 5 21
201 7 23
61 11 10
54 0 27
335 2 1
102 14 23
164 7 26
200 6 7
390 12 13
45 11 10
341 11 4
409 11 6
68 1 12
204 10 15
53 12 25
328 10 11
186 4 24
75 15 1
4 0 3
390 7 21
161 8 24
397 2 10
316 6 19
487 5 2
464 12 14
379 13 2
116 11 26
424 2 12
34 3 24
91 1 17
415 8 14
106 8 27
319 2 28
52 3 27
226 6 24
25 5 23
233 12 28
131 15 14
54 14 9
235 2 23
440 1 7
31 15 18
456 11 16
150 13 19
1 3 4
223 13 9
39 16 18
99 16 12
67 1 13
355 12 3
372 11 15
208 8 10
372 3 14
259 2 27
407 0 12
315 3 2
481 14 12
315 11 5
139 8 22
222 10 5
300 1 25
56 1 12
355 11 1
252 9 3
27 1 20
22 0 22
454 11 16
152 5 14
328 10 0
495 7 8
432 5 5
64 6 28
161 4 5
374 5 9
263 4 7
372 13 10
271 16 1
72 11 25
26 10 4
366 5 10
37 6 4
436 1 17
258 13 1
305 9 13
446 11 21
347 3 25
125 8 21
70 16 28
119 2 2
217 8 23
154 4 1
214 4 15
423 9 5
310 15 15
359 3 15
382 10 9
329 5 26
361 9 1
250 5 2
143 3 17
315 7 5
144 1 28
327 13 9
448 12 1
220 10 23
242 13 28
270 2 24
25 7 6
91 0 0
399 15 21
204 3 3
161 1 7
186 11 19
465 6 0
484 5 1
440 4 9
427 16 28
70 6 22
128 16 23
125 6 19
204 9 1
273 2 14
111 16 11
26 6 3
88 2 9
85 1 21
369 0 12
269 6 13
100 5 16
359 13 13
4 13 1
57 10 11
335 1 23
193 2 16
277 4 24
122 12 0
352 2 5
89 0 19
119 5 19
164 4 4
369 3 22
266 3 9
19 12 2
249 0 12
425 11 23
125 12 24
256 13 1
222 14 20
305 10 28
499 10 15
85 12 7
331 2 25
133 9 9
457 10 7
92 3 7
390 7 18
177 5 19
24 1 13
86 15 28
413 1 23
35 8 19
345 2 22
488 7 9
307 15 18
475 3 13
421 8 6
330 15 9
300 10 24
365 8 26
161 7 25
83 3 19
444 1 5
210 1 23
150 8 20
175 15 16
116 3 16
482 5 7
139 7 13
162 14 20
114 1 26
13 10 19
371 5 4
169 2 3
14 9 5
370 9 16
34 9 16
312 11 17
135 15 26
267 6 7
185 12 25
468 16 9
41 2 27
150 13 8
187 7 15
356 7 26
154 12 22
268 10 1
271 11 9
38 12 21
172 7 5
134 0 1
491 10 14
69 8 10
122 7 12
414 6 8
441 12 17
134 0 26
479 13 18
410 11 25
269 3 8
173 13 24
429 3 26
431 5 7
86 10 26
64 12 21
475 13 28
455 7 24
57 11 10
120 8 2
195 4 24
131 11 0
41 12 23
232 0 16
107 1 22
280 1 12
291 14 11
145 13 26
213 7 21
190 14 19
351 15 15
465 2 11
403 16 19
107 16 5
401 15 28
115 3 1
56 2 0
475 9 8
443 2 13
117 14 10
277 7 28
78 2 11
317 3 16
143 12 10
333 16 5
385 11 8
207 6 6
461 16 27
495 14 13
493 16 21
368 8 27
495 1 0
103 14 11
235 10 15
477 3 25
351 7 17
290 15 14
81 10 3
102 16 26
277 5 16
450 12 1
165 10 19
430 1 17
178 6 1
136 13 18
302 16 14
5 8 3
395 10 15
207 15 7
84 4 14
374 0 14
102 13 1
180 15 6
179 4 18
123 0 17
308 12 10
342 12 24
144 16 15
462 14 22
58 8 27
330 5 20
163 9 12
99 8 5
52 3 7
496 4 17
242 6 5
295 3 9
56 2 8
496 14 21
31 12 13
107 12 14
53 11 9
182 16 26
59 5 21
444 9 16
257 14 23
490 2 9
306 10 16
203 10 7
213 7 8
136 7 12
127 14 14
367 13 16
323 14 1
82 3 11
223 12 13
67 8 18
288 9 2
324 4 15
425 16 28
244 4 11
61 16 6
212 11 15
212 4 15
170 16 10
38 16 13
111 16 16
12 2 5
209 0 3
339 11 11
358 4 10
424 0 16
329 9 20
159 5 20
79 16 27
188 11 21
492 9 18
286 0 6
61 2 21
277 0 15
184 2 2
7 12 15
6 8 27
184 14 16
468 1 6
275 10 6
103 13 22
42 9 20
67 15 23
86 14 25
499 14 13
387 16 28
109 2 5
185 3 23
349 3 20
459 16 5
290 3 4
330 13 22
286 7 14
97 2 12
347 0 26
445 2 13
236 16 17
379 5 14
331 3 24
166 10 11
160 0 13
308 15 27
338 13 5
358 7 4
421 11 22
443 4 4
428 2 24
348 12 0
81 14 9
31 9 22
138 10 21
209 2 12
93 2 28
289 14 5
81 1 7
85 2 7
439 7 14
138 10 1
277 14 11
152 0 28
429 12 21
292 1 2
459 3 22
442 7 2
463 4 19
246 7 18
251 14 3
380 3 2
215 14 0
333 10 10
215 13 10
22 12 5
298 16 9
125 11 20
409 10 24
74 13 26
119 5 2
104 13 14
203 5 6
439 3 4
229 6 2
140 7 26
251 3 3
133 4 10
124 3 0
436 15 23
105 0 2
55 11 24
66 4 28
229 0 1
133 7 13
192 5 16
112 3 27
169 14 12
464 1 24
17 15 25
183 16 12
404 2 6
379 1 23
408 1 16
108 3 12
43 1 8
123 13 13
64 8 2
217 3 27
286 2 22
296 2 13
43 12 4
181 8 6
127 0 10
67 7 7
116 0 28
417 12 26
178 11 17
95 16 0
316 2 17
499 1 3
276 6 13
176 4 8
145 11 12
155 3 27
157 14 1
224 7 2
41 1 18
38 16 16
120 3 26
382 11 13
335 11 8
90 1 5
209 4 12
101 11 22
48 11 8
455 9 3
88 2 13
234 4 14
9 14 5
492 10 9
388 13 4
255 0 0
381 2 0
109 5 15
453 15 25
364 0 16
348 10 7
214 14 14
7 10 5
375 16 24
281 12 19
243 3 27
422 15 1
367 10 26
390 16 27
332 12 26
364 1 12
264 2 3
446 8 21
321 5 17
245 13 22
78 12 4
305 7 2
430 3 14
498 12 7
202 8 13
80 6 11
21 11 16
365 7 1
268 7 18
455 5 21
50 10 3
469 12 0
205 10 22
213 12 26
381 11 6
91 3 23
232 9 3
238 9 7
292 8 18
184 5 22
205 8 20
311 8 26
112 3 13
307 9 13
293 7 24
205 8 13
74 12 0
238 4 22
129 6 19
160 9 22
55 7 26
213 14 20
208 16 27
470 4 19
48 16 27
299 8 13
380 12 3
40 2 27
297 10 19
93 12 5
484 1 2
386 7 3
168 0 12
16 6 27
229 13 4
171 10 21
452 4 7
120 5 12
94 8 12
19 13 1
422 10 6
462 1 8
118 0 9
446 6 18
86 0 26
185 8 20
106 4 0
391 12 5
211 9 28
111 5 1
360 13 28
444 11 0
306 16 3
263 8 0
215 16 7
7 8 3
393 16 4
338 7 15
248 9 16
222 9 26
4 12 17
312 0 2
178 3 26
168 7 24
478 5 1
457 11 19
76 4 21
395 12 20
255 8 14
191 6 13
163 0 11
60 11 5
479 16 6
290 15 10
58 2 7
485 1 27
372 14 26
130 16 19
499 3 7
128 3 12
424 2 1
262 11 10
160 7 15
66 0 6
121 10 21
208 7 12
331 2 27
224 15 3
16 12 26
36 6 22
334 7 14
179 13 4
87 8 25
379 10 27
187 6 6
48 6 17
461 7 8
170 0 7
157 2 12
32 3 13
196 11 16
25 3 5
442 4 12
361 14 27
439 7 18
309 15 11
384 8 19
484 12 26
403 3 11
37 11 9
203 11 10
481 2 21
244 0 3
414 3 3
400 2 2
304 1 11
20 10 3
426 0 7
81 14 12
63 8 28
67 0 28
9 2 7
77 15 3
220 8 12
216 14 10
475 14 28
387 8 1
158 5 5
449 14 0
475 3 28
47 7 6
238 2 2
162 11 0
413 6 11
223 5 8
54 3 7
379 0 17
360 1 17
369 0 13
255 1 13
340 11 18
119 5 19
487 8 3
398 11 20
55 0 18
235 2 1
111 7 12
442 4 2
2 2 12
369 9 8
273 6 14
99 11 21
299 7 9
68 7 22
335 9 13
412 1 9
292 14 5
100 5 14
192 12 10
12 15 16
127 8 22
138 10 12
487 9 11
177 15 26
14 4 3
215 1 12
87 2 9
407 1 19
477 9 8
476 6 27
200 11 8
372 9 12
70 6 5
413 14 21
161 15 5
210 12 2
94 13 17
341 6 2
490 5 20
271 2 3
42 0 17
59 11 24
9 12 11
39 2 27
68 11 25
221 16 26
374 5 7
82 6 12
438 15 26
74 16 19
56 14 2
7 13 23
32 15 16
372 15 13
381 13 9
20 13 23
88 16 1
362 5 1
402 8 6
316 1 10
14 16 27
387 12 2
478 10 10
163 16 16
205 9 28
273 8 13
73 9 7
130 0 24
446 3 17
290 0 13
399 10 5
93 6 22
90 16 13
87 1 21
178 1 24
223 15 25
328 6 21
168 6 1
379 1 25
313 13 3
7 11 9
36 12 24
472 13 3
422 7 4
51 0 2
334 5 4
296 14 21
445 4 27
201 0 22
358 11 18
328 1 6
315 2 3
372 4 28
17 0 15
219 0 22
215 15 13
86 12 8
376 11 27
110 6 27
253 3 28
51 13 25
86 13 18
363 11 12
215 10 19
75 4 20
115 16 9
457 3 28
125 4 13
139 4 28
307 3 6
447 15 13
445 7 19
76 0 18
449 14 7
471 2 8
420 0 28
424 7 14
125 7 24
464 2 12
140 12 27
143 8 2
273 8 1
312 9 25
68 8 14
34 4 21
485 1 15
351 7 6
374 6 17
280 10 19
216 14 6
199 12 22
58 11 20
199 10 3
181 13 10
69 7 1
453 11 24
400 3 21
375 3 13
315 16 12
349 0 6
158 1 25
231 1 11
89 2 23
78 14 10
451 1 7
92 13 6
125 10 12
46 10 22
241 2 18
294 7 6
282 15 13
299 13 22
182 3 18
251 14 18
92 6 11
370 13 15
86 2 22
108 11 3
218 6 2
243 1 12
78 6 0
110 15 9
305 7 9
408 11 9
30 2 19
469 11 20
372 10 1
131 6 22
448 10 25
170 9 16
8 0 8
135 1 9
148 8 19
227 8 5
230 1 13
69 5 5
163 6 2
68 3 1
44 8 6
227 2 6
445 11 24
333 14 4
309 12 2
124 1 23
62 10 24
3 8 8
194 15 6
154 16 28
213 12 18
396 8 1
78 9 14
181 3 4
2 3 15
194 14 9
432 12 1
46 3 10
39 8 14
291 5 25
289 9 12
79 12 5
74 4 6
373 5 13
81 0 2
353 14 17
469 5 21
280 15 28
210 4 17
32 9 5
469 10 6
298 15 3
375 6 12
276 6 2
329 1 1
181 11 23
270 0 23
327 6 23
3 3 1
313 14 11
431 8 11
481 3 7
204 1 0
55 4 24
102 13 9
308 9 28
296 14 24
427 13 10
124 1 10
100 3 11
71 4 0
432 6 13
1 1 16
137 11 10
114 10 22
426 9 18
369 5 22
9 15 14
87 5 16
67 11 27
283 5 4
339 15 7
355 11 3
24 15 21
308 4 19
385 14 9
41 0 24
221 6 18
53 14 6
124 8 26
203 16 10
35 2 26
409 4 11
47 2 11
449 3 18
485 10 24
374 0 1
0 10 0
435 0 22
84 2 14
464 7 18
80 7 5
320 8 9
125 12 8
352 15 28
153 5 26
377 14 8
343 0 27
495 6 22
239 6 3
66 4 18
462 3 2
115 1 23
121 5 1
30 14 17
308 8 7
69 9 15
131 16 28
75 9 9
282 15 9
210 13 7
243 4 19
336 13 20
91 2 6
21 4 3
180 10 1
439 3 8
284 2 3
396 7 25
391 4 4
116 15 16
262 9 25
73 3 6
379 7 18
337 13 1
46 11 12
353 2 10
480 15 21
152 0 10
209 3 24
372 7 28
313 7 6
74 15 16
34 14 2
289 9 23
265 4 9
433 10 23
33 2 3
425 0 18
473 15 8
282 4 3
139 9 23
458 1 26
416 10 1
53 5 24
477 8 9
448 8 25
342 16 16
267 1 26
243 6 15
80 4 23
372 0 7
266 15 21
381 14 18
112 0 11
272 9 21
19 4 13
316 3 5
177 11 17
481 10 9
202 14 13
177 4 9
201 9 21
134 15 5
380 1 1
48 13 10
300 11 7
418 14 16
228 13 4
402 8 19
181 15 12
253 12 17
362 4 15
11 3 10
176 13 15
385 12 10
480 15 12
255 7 18
163 11 15
127 11 24
127 15 11
349 13 18
255 15 12
94 1 2
38 10 6
178 15 27
280 2 11
418 0 21
118 10 9
3 8 6
161 16 25
27 13 10
266 15 23
472 0 24
475 14 24
236 10 1
353 11 24
464 4 6
58 13 25
483 13 6
305 6 14
438 6 10
181 11 11
197 6 12
366 4 12
63 1 12
411 6 15
400 9 8
221 13 23
61 15 4
424 10 9
261 12 14
315 12 25
285 15 24
161 15 2
464 1 7
310 16 3
211 1 27
317 16 12
358 15 25
237 15 1
119 6 10
307 4 15
496 14 2
63 7 15
387 2 10
471 4 14
289 16 12
465 7 21
437 9 19
387 4 1
121 3 17
282 11 25
485 14 16
309 6 28
411 7 11
198 7 5
405 15 23
369 2 18
217 6 28
356 14 9
100 10 11
282 16 0
105 4 22
229 12 12
429 0 8
456 16 23
147 6 7
187 2 1
360 11 23
0 7 18
17 0 19
330 14 16
123 16 22
281 4 0
275 4 28
285 8 16
290 13 11
260 8 12
93 8 19
290 4 20
316 11 12
24 8 28
252 0 26
3 3 21
207 3 22
487 5 15
388 8 7
112 5 23
93 16 13
424 14 20
102 8 26
441 13 28
146 16 9
76 3 21
150 13 15
368 16 7
353 10 24
208 15 11
67 13 14
2 10 23
322 6 23
147 15 2
201 1 20
202 11 11
416 0 26
411 7 3
256 10 0
102 16 17
114 0 27
199 6 23
83 5 19
2 0 20
149 12 1
121 3 14
53 10 8
37 14 26
87 15 12
176 4 10
499 15 27
216 4 24
127 13 22
113 0 23
327 4 28
11 0 22
46 0 14
432 11 2
23 5 9
332 10 19
326 15 5
401 11 6
405 12 9
314 0 17
118 16 3
113 16 24
100 11 20
11 16 20
349 10 10
193 13 22
342 8 14
161 7 7
365 8 17
436 6 5
325 9 2
378 11 23
175 13 24
245 2 4
459 14 20
182 11 13
431 10 0
377 5 22
1 15 16
466 14 15
453 8 6
136 14 6
172 0 13
75 14 10
215 8 28
267 12 6
480 16 7
323 13 28
312 3 23
435 5 13
99 3 26
408 7 27
88 8 27
293 12 26
287 0 15
265 0 3
214 5 3
282 0 2
441 12 6
85 3 27
120 10 10
406 2 18
18 16 2
295 0 5
332 13 25
375 4 6
162 7 1
462 1 22
362 3 0
129 16 28
33 7 6
174 6 14
463 10 19
357 0 14
428 5 0
119 3 11
140 16 7
287 9 17
414 5 4
146 10 20
469 11 24
120 4 0
345 14 8
295 1 19
390 2 16
122 10 8
216 6 6
326 9 28
250 1 10
3 9 12
473 0 7
474 6 25
25 7 23
334 15 19
495 7 16
235 0 2
250 13 0
406 10 17
113 7 2
125 10 18
327 13 27
12 3 5
117 6 10
0 10 4
494 2 5
307 16 8
388 13 21
106 14 6
376 9 13
487 3 7
348 3 12
206 6 8
152 9 7
183 12 10
99 13 14
214 6 27
6 6 7
73 10 23
227 13 27
404 13 2
143 7 16
339 5 10
361 5 2
404 16 2
296 13 0
235 16 7
222 4 0
276 10 22
258 9 22
145 6 28
20 8 14
150 4 4
91 9 8
143 5 14
157 6 10
456 11 9
327 8 3
177 13 13
358 1 0
476 5 1
51 3 5
149 10 17
438 13 5
10 2 10
411 15 23
264 4 24
73 13 10
130 3 7
236 14 8
158 14 12
41 0 0
64 9 25
21 4 13
442 16 16
38 8 18
427 8 15
221 2 16
412 9 23
295 16 17
103 12 17
376 16 17
316 16 21
349 16 24
239 2 20
239 1 18
179 15 1
442 16 26
408 7 13
191 10 2
325 2 5
150 14 22
144 15 28
361 8 14
348 11 15
474 11 4
165 3 17
490 13 0
417 10 10
236 3 17
234 9 12
201 5 27
428 16 25
260 12 24
221 0 10
459 0 2
125 12 2
445 10 6
74 7 26
156 11 18
457 10 5
446 10 3
499 6 3
323 14 16
54 14 26
325 12 15
322 10 0
178 16 15
316 3 24
140 7 21
71 3 19
257 15 28
272 6 20
82 1 4
4 10 25
74 12 0
445 2 11
378 10 18
383 13 21
330 5 2
111 8 17
317 15 26
444 12 18
341 14 15
474 1 27
372 8 0
141 0 4
479 7 18
366 8 28
31 13 13
349 16 21
29 5 22
253 3 20
39 6 27
351 9 23
12 15 17
409 10 7
428 3 27
55 7 5
133 3 15
288 9 25
305 16 22
12 11 14
144 0 27
203 7 16
483 9 24
425 5 13
28 15 26
91 9 28
205 14 19
474 1 17
66 6 2
228 15 26
300 6 23
405 5 9
420 12 11
425 8 11
247 8 7
443 15 10
45 14 20
308 14 19
253 4 12
236 1 11
338 11 4
468 0 4
69 15 5
145 2 8
50 15 10
346 1 8
400 7 7
321 9 16
152 13 5
370 15 3
374 8 1
151 3 6
414 6 11
467 16 13
187 4 24
252 9 7
131 12 23
225 10 16
143 13 26
353 7 3
30 16 23
65 16 12
430 12 21
488 2 9
18 5 25
450 2 25
136 0 12
96 7 21
69 16 2
257 16 20
73 3 18
193 7 3
151 0 13
63 15 21
166 0 17
470 5 8
242 8 7
244 2 4
236 16 19
230 3 27
102 1 4
374 7 13
163 16 21
258 11 16
77 9 1
78 4 8
39 4 15
308 11 17
361 10 25
78 9 23
12 6 18
33 16 6
246 15 22
332 14 24
208 8 27
291 5 22
38 6 9
257 2 0
174 16 15
421 0 17
407 0 22
183 12 24
465 0 25
157 8 26
106 6 24
287 6 4
92 1 12
18 16 16
86 5 13
395 13 21
192 0 3
117 14 8
170 9 0
153 14 21
376 14 4
455 6 26
87 13 22
212 2 5
387 12 21
392 14 21
267 10 24
166 13 25
266 13 21
130 2 1
438 2 9
153 16 20
393 16 20
138 2 3
202 10 3
91 1 11
380 3 21
92 7 25
360 9 5
220 8 1
407 2 12
39 9 17
413 8 28
177 16 15
243 10 22
79 4 27
276 14 0
5 5 18
281 5 15
46 3 1
363 14 12
98 3 23
97 12 22
216 3 6
342 11 24
211 3 13
93 13 18
278 15 19
467 10 23
298 7 12
491 6 22
364 2 20
21 6 17
67 13 4
1 15 2
80 6 4
53 3 18
239 16 16
153 4 8
134 1 0
176 13 25
167 8 14
389 0 26
228 10 27
351 12 2
59 2 13
144 8 5
49 2 11
202 11 15
196 16 2
275 3 20
304 6 25
9 0 0
140 14 12
292 14 6
366 9 26
188 5 20
80 10 18
21 14 22
220 8 7
151 2 16
70 11 13
406 0 28
52 5 12
108 6 11
27 0 2
309 11 1
393 14 0
454 6 9
25 3 0
279 11 19
421 15 2
46 3 20
486 6 15
404 4 9
89 7 12
269 4 26
50 0 27
458 16 28
421 13 26
448 4 17
2 4 3
201 10 9
409 8 24
258 0 13
246 11 7
311 5 6
81 3 5
413 3 3
490 3 12
46 3 4
445 0 5
79 6 10
366 7 15
363 15 5
116 0 14
6 14 10
400 6 3
347 5 15
84 12 4
89 9 15
314 8 4
422 12 10
182 3 19
108 13 23
303 9 22
456 9 2
464 10 10
86 15 18
55 16 15
477 10 2
293 4 16
296 0 12
372 13 11
346 0 27
102 4 8
76 4 12
427 14 0
387 2 19
392 12 18
254 6 2
273 6 22
51 5 3
160 12 26
80 3 24
361 10 17
347 8 25
79 9 8
218 8 25
467 14 13
406 3 7
380 7 9
461 7 21
8 1 11
132 8 4
496 16 0
445 0 16
410 1 28
57 10 0
172 6 27
293 2 2
267 15 4
127 4 0
362 10 16
219 6 0
168 5 9
254 8 0
351 7 26
254 3 17
229 0 9
136 1 17
176 15 15
391 2 25
427 4 23
425 12 12
44 8 24
55 6 10
19 15 2
475 9 5
65 6 7
442 14 2
421 8 6
35 10 25
241 11 18
394 14 12
48 6 2
341 16 24
293 9 26
84 13 18
261 11 4
226 3 9
7 14 5
450 3 13
169 14 5
467 3 28
430 0 3
389 9 5
168 12 0
227 11 26
353 1 21
400 9 20
238 1 20
56 13 4
167 4 21
449 7 1
114 11 25
66 16 6
258 16 2
474 1 18
93 0 24
498 3 25
299 13 26
72 7 26
373 9 28
40 1 28
349 6 15
32 15 28
417 7 15
364 15 12
357 16 20
1 8 27
475 9 13
488 5 15
242 14 26
188 1 16
33 10 14
189 15 23
396 10 15
172 16 13
62 1 6
326 13 26
30 9 3
444 5 13
81 8 21
28 9 18
446 13 17
0 11 11
159 15 14
379 14 28
435 13 18
378 7 0
123 8 6
298 15 9
108 3 26
195 15 2
346 6 6
484 16 27
115 14 21
341 13 28
135 8 28
398 15 1
320 12 10
112 15 19
334 12 8
378 13 19
124 0 21
207 5 20
421 16 11
118 5 28
265 9 7
129 13 4
456 9 14
368 10 2
29 8 20
136 8 18
422 0 25
317 13 15
448 14 3
60 9 28
53 16 11
279 16 19
187 0 9
378 3 7
440 12 0
391 8 17
422 0 27
97 9 28
276 7 1
189 1 5
176 9 12
105 1 24
259 5 19
24 6 28
168 12 10
283 4 7
286 12 6
439 13 2
377 12 5
280 6 20
182 8 17
211 9 18
140 16 21
17 3 11
369 7 0
428 9 13
226 12 15
46 8 27
465 13 17
68 9 12
461 7 25
90 5 3
450 10 15
186 5 17
102 13 24
155 12 19
164 1 13
427 0 12
270 12 21
256 16 24
14 5 6
234 14 24
394 3 27
430 7 3
390 0 20
205 9 17
238 7 24
322 6 13
441 15 2
221 6 15
204 1 16
248 3 26
456 13 10
57 3 14
229 2 14
287 5 0
234 3 19
339 10 0
222 6 25
64 14 4
451 6 6
312 12 0
120 2 27
499 12 13
166 1 2
29 11 13
245 13 17
462 3 4
205 12 5
187 16 1
285 11 4
347 6 19
326 15 7
457 4 1
360 14 1
241 11 9
163 2 6
287 10 13
219 16 13
484 5 7
74 0 24
281 13 5
282 0 0
22 9 3
171 3 10
381 1 0
337 2 7
88 5 16
397 7 3
194 3 14
346 15 13
400 4 3
164 12 4
461 1 5
417 16 4
138 15 25
184 5 9
245 2 9
156 10 26
121 8 1
258 13 12
85 1 14
199 7 3
239 3 5
391 1 11
452 14 24
390 12 23
283 16 1
255 7 9
498 7 8
151 12 13
470 13 26
124 11 20
186 4 15
265 2 14
84 14 20
45 0 19
37 7 4
376 5 19
261 4 15
122 14 18
340 9 18
152 16 7
87 11 16
424 3 18
310 3 28
191 6 19
304 6 12
151 16 26
279 12 20
353 9 27
23 2 5
313 4 19
168 8 10
349 6 17
499 11 27
303 14 15
73 14 1
27 9 18
124 8 23
382 4 28
451 11 26
425 15 21
425 14 25
194 15 3
9 4 14
284 16 22
489 5 16
83 7 25
14 11 18
355 13 14
345 1 28
81 6 7
385 6 0
423 8 15
476 4 10
91 7 26
37 8 14
135 7 13
242 5 17
376 3 14
83 10 13
330 10 18
132 6 27
143 0 1
117 9 26
170 1 21
387 0 4
68 7 8
430 16 15
42 16 7
150 14 4
297 5 5
140 0 8
284 15 18
439 16 28
52 11 18
331 1 13
447 10 15
357 13 3
82 9 0
434 12 23
387 15 19
72 12 24
367 0 21
192 13 2
164 12 28
237 4 8
63 11 6
203 3 2
294 13 27
138 2 0
334 14 2
117 0 25
59 12 23
480 2 8
316 14 1
244 1 0
201 16 19
358 7 26
108 4 0
391 7 26
429 2 21
67 11 22
296 11 24
442 13 14
325 15 4
48 3 7
128 4 2
242 5 1
338 2 5
383 13 5
125 6 15
51 12 16
186 14 3
372 2 22
480 15 12
386 13 7
112 1 16
364 5 8
280 4 20
252 6 3
62 7 3
127 15 17
163 9 25
350 4 16
486 6 0
172 2 17
183 7 16
494 1 5
81 11 17
64 1 0
259 11 19
83 4 21
412 7 14
403 15 5
209 11 25
116 4 24
492 8 25
234 0 1
19 14 13
338 10 12
17 3 1
330 9 8
87 11 11
252 2 15
68 16 25
368 4 8
340 6 14
345 13 21
227 5 17
168 3 3
217 4 13
10 14 6
186 0 18
288 15 16
164 5 5
258 11 17
36 0 20
379 12 23
390 5 2
447 1 18
52 10 25
352 0 1
270 6 2
390 14 15
439 8 4
6 10 1
409 4 2
307 7 20
83 11 27
423 3 25
482 1 1
225 9 2
21 5 4
32 2 9
130 4 28
56 14 28
448 8 28
379 13 14
278 14 22
207 11 20
196 7 19
282 12 21
392 14 16
187 7 2
266 10 19
145 1 10
305 16 16
323 13 11
108 13 6
348 15 10
367 15 11
313 12 4
457 6 25
262 5 9
305 2 17
454 4 16
188 1 24
42 0 28
307 10 8
40 4 18
249 2 2
487 2 19
443 7 5
14 15 25
365 12 15
392 2 21
206 13 2
117 16 23
347 13 20
420 8 13
39 15 22
369 3 6
434 11 21
160 3 1
359 12 28
374 10 16
252 14 28
167 13 20
216 0 24
38 1 23
80 8 17
391 9 6
336 9 24
437 2 5
239 10 2
33 15 27
442 13 10
175 1 3
60 7 25
0 13 19
352 6 5
222 6 7
490 1 17
243 11 12
487 12 16
327 8 1
39 8 25
386 16 14
55 13 1
220 16 13
384 2 6
200 3 24
283 5 22
484 6 5
82 10 4
73 15 25
213 16 21
47 13 18
446 15 25
270 11 18
191 7 28
403 3 1
306 15 23
393 0 25
307 8 6
295 11 24
446 13 0
96 13 24
172 7 7
209 8 9
184 16 28
189 9 22
33 9 13
147 6 12
159 0 11
454 0 18
367 13 27
291 5 9
8 7 24
58 10 3
208 10 17
282 11 4
281 15 27
125 8 6
85 14 19
464 0 13
6 0 12
117 6 7
88 0 20
63 2 13
0 7 9
312 1 10
189 16 3
423 15 20
115 6 16
310 9 9
81 15 20
497 1 25
223 9 9
80 15 17
401 4 23
473 6 4
416 6 5
238 3 28
378 9 22
487 10 2
459 3 24
327 15 25
499 13 11
43 4 20
218 1 22
23 16 17
483 11 26
356 3 19
361 7 6
295 1 23
431 10 3
477 6 20
300 16 17
204 7 1
154 13 21
163 12 10
421 9 23
101 11 11
333 16 19
114 14 22
314 1 14
166 0 1
244 12 28
286 6 17
321 9 20
307 0 17
449 9 6
139 0 16
338 9 24
94 14 28
453 2 22
299 4 10
448 5 2
16 7 1
461 11 4
226 6 18
87 12 0
466 7 12
489 1 18
126 1 14
49 2 17
6 7 18
224 11 14
451 8 16
285 13 25
69 0 8
125 7 21
470 7 19
63 0 11
387 9 17
409 7 5
499 16 18
187 0 28
57 16 2
175 14 5
36 16 3
91 7 26
296 0 2
50 13 14
139 6 9
258 12 17
29 14 14
366 10 26
24 5 13
31 9 18
119 4 10
498 16 18
492 15 0
13 8 15
143 3 19
122 16 26
407 0 19
372 6 18
248 3 16
280 5 23
71 11 14
9 0 25
267 4 25
250 10 12
490 14 28
137 0 21
365 5 28
368 0 14
109 2 3
493 15 8
149 12 0
41 2 25
257 9 28
483 12 25
260 10 27
352 10 7
162 15 3
212 6 14
130 12 7
261 6 22
484 12 22
468 10 22
180 7 6
17 15 14
1 16 28
368 3 9
381 2 25
68 6 7
149 3 26
458 9 27
209 13 3
328 0 23
279 1 26
243 10 14
172 10 24
320 6 15
113 9 28
200 4 2
178 16 24
325 16 17
481 6 10
469 4 13
178 4 24
296 3 2
89 2 16
53 3 13
109 9 25
418 11 25
153 13 16
461 5 26
309 2 0
322 9 23
384 1 23
370 11 7
188 7 10
90 6 16
420 15 5
2 9 2
74 15 2
303 2 20
435 0 19
35 1 9
269 11 18
13 5 28
277 5 2
489 11 0
479 10 5
162 1 22
110 15 16
164 16 6
412 0 23
58 2 18
162 14 26
328 4 12
450 4 5
186 11 9
305 1 23
455 8 21
447 8 9
222 16 10
317 10 2
494 7 12
295 2 16
272 7 10
313 15 6
197 9 10
77 5 20
454 14 25
424 2 19
242 14 11
191 12 26
91 16 19
480 4 24
436 7 14
6 4 5
394 16 13
21 9 4
472 9 1
204 1 27
145 10 22
135 0 18
293 16 15
98 8 21
12 3 0
206 10 20
258 16 25
343 2 2
244 16 14
312 2 6
447 6 22
73 0 16
156 8 15
118 11 2
26 0 3
140 12 18
374 12 25
241 9 24
265 9 2
228 6 15
8 6 21
196 0 21
389 5 17
268 10 11
484 10 3
131 1 4
92 0 11
192 15 20
441 12 4
229 10 6
147 15 12
183 15 3
176 1 2
227 16 10
200 7 0
215 11 20
291 4 10
175 0 4
427 3 11
303 16 5
293 7 0
150 5 2
386 7 22
483 13 17
23 5 23
273 13 22
498 12 7
214 5 1
429 10 18
23 3 16
237 5 26
464 10 10
315 13 15
426 3 8
225 13 28
412 4 6
327 9 11
370 15 25
39 5 28
295 15 22
43 10 15
374 14 5
192 11 13
71 6 23
200 2 8
304 9 28
351 3 5
186 8 3
168 3 14
139 5 26
477 8 9
347 9 16
446 5 21
491 15 6
233 7 27
366 4 4
43 15 11
262 6 9
78 4 14
208 7 17
277 11 25
394 13 15
131 4 27
57 5 25
105 7 26
314 3 12
3 0 15
301 1 13
249 5 9
311 7 26
411 14 8
477 7 22
498 13 28
188 3 26
15 1 19
346 13 1
201 12 25
172 6 26
64 9 5
377 4 18
79 8 10
174 15 4
27 2 26
64 6 26
102 13 26
139 10 4
50 2 17
108 15 22
346 10 3
320 6 22
161 12 25
134 14 4
298 11 25
476 3 26
314 1 23
222 4 5
270 7 23
66 12 21
458 7 4
182 3 22
171 2 5
198 13 24
447 1 12
96 13 26
21 9 10
160 3 4
248 9 27
303 13 27
206 2 8
14 16 20
7 5 20
102 10 3
121 3 6
367 4 10
173 3 5
111 11 10
453 14 9
33 7 0
499 5 6
291 4 21
481 0 16
441 6 0
368 7 17
323 6 14
410 1 23
268 0 3
7 3 22
119 10 15
364 7 5
395 9 5
298 4 15
374 6 9
304 4 19
413 6 26
485 8 17
207 1 2
241 3 12
39 16 13
250 12 15
60 3 16
275 4 27
400 10 0
202 13 0
121 15 24
58 2 13
310 16 13
487 10 1
217 5 15
476 7 5
243 12 16
346 12 7
189 9 3
407 15 1
376 8 26
46 0 11
428 5 15
71 9 21
158 13 17
281 6 17
356 3 15
110 13 11
23 8 2
208 7 5
265 2 23
145 14 0
466 16 27
466 11 2
58 8 28
201 6 14
328 1 11
108 12 28
54 15 2
11 3 5
282 8 19
20 15 28
136 12 4
317 12 20
104 11 21
18 15 3
180 16 19
440 5 3
473 2 7
456 2 7
275 4 21
499 2 14
133 7 2
271 5 6
422 15 3
278 2 23
412 12 0
59 0 22
484 0 28
391 7 24
182 9 6
351 13 15
314 12 10
481 13 23
3 11 12
431 2 6
94 0 2
357 12 20
292 15 10
134 12 5
42 4 16
57 7 9
493 9 19
185 15 1
297 4 24
491 15 21
358 0 25
292 8 28
369 15 12
403 4 8
58 10 4
297 6 25
216 10 5
45 12 17
480 9 6
342 8 8
97 13 4
66 6 1
181 1 5
115 0 6
499 13 28
256 16 7
107 11 21
365 12 20
51 16 21
391 2 5
302 13 14
25 7 13
452 12 16
79 1 23
451 4 17
367 4 8
103 9 5
91 15 17
251 10 2
273 13 5
199 16 24
334 7 19
188 15 27
310 8 27
225 2 1
211 12 5
469 9 27
439 4 24
374 14 24
249 12 22
442 11 21
288 15 8
66 10 15
10 1 12
0 11 0
75 11 13
345 8 26
416 11 12
45 16 2
366 10 21
74 10 3
240 9 17
272 1 26
493 3 9
470 9 14
153 8 8
83 8 10
73 2 25
135 7 3
333 16 8
155 3 4
209 14 1
382 16 12
266 11 18
219 1 12
51 14 5
255 6 7
498 5 25
306 8 28
53 10 26
305 3 22
226 9 2
301 4 1
362 4 5
263 8 4
224 8 25
283 7 15
417 16 19
407 10 9
249 7 14
249 8 7
446 8 13
53 14 8
182 12 4
457 11 3
180 15 10
176 7 15
276 16 9
226 11 19
244 5 23
357 12 15
41 6 14
189 15 8
274 0 22
330 11 1
370 7 2
83 9 5
471 4 22
40 2 8
190 6 23
304 8 6
411 4 0
264 13 26
9 10 9
97 6 12
44 8 5
441 7 28
361 6 9
331 14 0
470 4 16
20 2 6
295 13 21
480 10 14
173 1 16
229 14 13
161 4 5
33 14 4
37 5 6
296 4 8
63 14 24
172 5 13
99 3 8
307 7 18
13 1 10
218 15 0
95 12 3
474 1 15
394 8 19
420 6 12
1 1 14
231 8 26
499 1 26
332 13 9
387 2 2
197 12 26
41 8 28
129 9 0
42 13 27
174 14 28
112 12 17
325 7 21
415 8 11
462 7 19
259 14 17
7 10 14
91 1 15
412 3 12
410 9 19
309 7 21
111 16 20
250 14 28
40 7 12
475 9 19
83 5 22
344 12 17
86 12 27
491 6 0
156 16 10
190 9 26
249 16 6
377 9 23
48 10 0
47 3 11
429 11 16
389 1 15
458 1 4
249 2 5
182 13 7
453 0 24
290 9 10
357 6 2
209 16 15
330 8 7
284 2 1
455 7 3
10 9 23
105 14 11
224 12 20
481 6 13
452 0 26
226 6 4
56 8 17
155 16 19
147 5 10
444 2 28
369 9 5
148 1 20
134 1 9
137 4 1
289 2 13
299 14 14
12 12 22
110 6 11
499 13 24
280 15 14
271 2 17
108 5 21
199 16 9
257 16 25
204 8 1
381 9 25
447 10 21
204 12 9
422 15 23
293 0 4
461 2 27
169 6 8
80 3 6
61 13 17
68 3 6
390 10 10
98 14 21
360 2 11
124 9 24
322 7 6
241 3 19
148 6 1
354 16 18
219 2 4
73 8 13
172 3 2
178 3 26
68 5 23
422 7 16
283 1 16
214 5 7
291 13 17
104 8 8
256 11 15
291 12 23
257 2 28
295 9 28
487 7 27
401 14 18
251 14 18
60 13 6
46 1 6
182 0 3
217 1 2
166 0 28
166 16 0
98 5 1
158 10 12
447 3 12
418 5 3
168 14 9
258 14 5
89 13 0
410 2 11
164 16 19
378 11 5
356 10 7
493 15 6
361 12 20
208 13 21
384 1 0
67 15 4
32 13 13
11 12 13
301 7 10
230 15 2
12 5 24
476 11 6
56 2 10
99 10 22
265 10 28
353 0 1
470 3 10
301 5 10
32 12 5
159 12 22
129 10 8
220 1 26
266 12 1
377 16 15
389 1 19
239 16 15
147 1 5
165 15 25
376 3 24
315 15 12
151 3 3
263 12 3
476 7 17
378 13 20
224 10 15
376 4 11
464 10 23
141 7 9
267 6 10
442 8 13
17 12 28
63 14 5
247 10 22
341 6 1
2 7 4
305 11 27
378 6 0
184 8 18
42 2 25
154 5 17
452 13 8
0 0 23
494 8 21
32 13 25
499 14 24
210 15 28
102 5 17
297 8 16
117 14 16
439 2 13
198 7 8
204 11 13
392 9 2
337 9 6
465 7 10
490 1 25
6 7 17
174 9 2
396 7 23
191 16 20
209 2 24
156 6 12
203 0 25
419 14 10
476 11 1
470 1 20
63 16 3
449 9 28
307 16 8
242 16 12
200 0 8
84 10 4
230 3 6
190 1 26
450 9 28
416 14 0
203 14 25
388 7 18
54 14 25
197 9 21
237 16 17
174 3 23
67 11 3
176 0 19
192 4 3
380 9 22
393 8 9
375 14 7
300 3 19
151 12 14
74 9 28
412 4 8
128 16 14
296 7 21
94 13 1
95 7 19
287 7 5
180 9 6
81 3 19
134 16 7
346 7 22
342 2 13
410 10 5
452 5 10
9 9 8
124 7 5
350 9 26
197 2 20
256 11 13
214 2 26
0 4 16
179 2 7
268 2 18
158 9 16
408 7 24
87 4 5
83 11 1
493 6 3
371 13 7
460 0 14
47 7 4
299 4 14
60 13 19
7 13 11
266 5 22
74 6 8
217 6 2
22 9 26
364 14 20
480 10 11
314 15 25
222 2 2
13 0 17
121 1 23
177 1 0
4 9 19
282 14 11
143 2 24
212 12 19
205 11 22
18 16 21
61 7 20
487 3 4
112 10 26
74 2 0
373 10 3
60 2 21
53 1 27
323 8 27
99 15 17
47 15 23
56 4 11
42 5 0
57 4 7
76 8 9
186 7 24
344 9 28
273 12 13
386 1 27
261 8 13
497 15 8
76 13 21
434 15 18
330 15 17
56 7 12
36 15 17
44 16 5
365 3 21
394 12 1
32 12 12
216 0 16
281 5 13
322 4 17
372 5 10
349 1 19
3 10 4
116 11 6
498 14 18
278 8 19
445 14 24
395 12 9
439 2 16
109 15 18
358 4 25
429 5 20
307 2 7
13 10 15
167 15 21
61 13 6
246 9 6
206 1 4
9 13 8
75 12 19
371 14 15
25 2 11
335 10 26
446 7 1
364 1 26
93 4 2
48 0 7
40 4 9
23 1 23
207 0 2
270 5 9
479 13 26
161 9 24
209 4 15
487 2 3
462 10 21
407 10 3
228 4 9
393 8 18
12 11 0
76 5 10
286 2 11
441 4 0
206 9 12
380 13 3
422 14 7
176 2 19
89 14 12
418 13 26
69 7 17
93 6 4
90 4 20
459 5 27
88 13 13
371 4 27
382 3 21
202 2 25
447 5 1
443 9 5
270 16 24
293 10 28
196 16 28
29 12 10
276 7 6
11 11 17
481 1 16
335 9 15
278 10 5
170 2 6
492 7 28
287 8 28
110 12 2
392 15 11
342 7 18
265 10 1
222 11 22
49 11 24
18 8 14
446 1 15
80 7 12
282 16 16
159 0 17
476 8 9
134 10 6
133 13 20
37 1 20
330 6 15
292 1 1
469 15 18
266 13 10
328 2 14
481 1 24
463 3 11
355 11 3
419 15 28
477 2 28
77 12 17
365 9 5
448 8 23
333 10 6
50 14 12
66 0 19
270 16 10
354 11 0
90 10 0
83 16 23
172 4 8
176 13 2
34 8 18
184 8 16
220 12 19
160 15 21
402 6 17
445 13 28
252 11 22
401 13 6
381 11 14
198 6 22
361 1 13
327 12 22
401 7 9
250 14 7
360 1 11
426 3 3
101 1 16
22 10 19
310 1 27
321 4 13
82 11 7
353 14 4
364 15 26
496 7 19
7 14 0
359 5 5
248 9 8
134 10 17
193 4 19
354 5 12
386 2 8
122 8 5
0 9 0
462 6 26
246 5 23
432 7 25
413 0 0
189 6 0
146 14 1
188 16 21
384 8 19
314 5 0
373 1 8
366 1 5
59 15 4
138 16 27
81 5 6
208 7 2
219 0 12
199 0 28
82 12 11
26 3 22
322 1 18
225 13 19
249 1 15
240 13 8
197 5 26
196 10 26
381 8 1
67 12 27
46 14 23
37 6 26
16 15 18
462 0 12
56 10 20
63 5 7
282 15 1
478 15 1
21 8 7
440 7 12
19 3 12
392 2 26
20 11 11
40 8 14
29 11 17
15 5 23
319 11 8
207 2 15
414 12 11
279 8 18
274 4 2
51 10 14
120 5 25
286 16 22
162 3 4
49 3 14
405 12 28
138 11 1
470 7 27
314 8 0
89 11 24
498 12 13
312 12 24
55 9 17
52 2 3
450 0 26
259 14 22
358 4 11
92 13 25
354 0 9
499 3 12
36 8 12
364 6 22
12 9 28
363 8 14
447 13 26
255 11 22
105 14 12
382 7 27
274 10 4
168 1 15
446 9 10
171 6 28
407 14 1
318 6 10
270 7 8
37 0 26
183 14 21
266 13 5
365 16 26
371 4 18
365 9 9
49 6 22
497 5 28
474 5 6
370 9 25
368 3 19
195 10 4
108 15 14
384 10 14
449 7 6
92 4 18
194 4 28
105 16 16
305 2 17
149 3 4
180 4 20
18 2 21
230 9 2
196 6 9
267 0 8
196 0 24
31 14 10
366 4 10
257 9 21
262 12 14
77 10 5
125 2 24
453 3 10
275 4 0
399 9 22
197 7 28
142 13 9
415 9 12
196 10 25
361 10 16
338 4 13
482 8 28
219 3 9
153 10 8
52 14 12
341 9 23
135 2 8
203 15 22
21 6 28
63 0 27
101 12 2
5 5 24
436 5 12
151 11 3
393 5 22
72 15 26
314 5 18
368 8 17
77 6 21
49 15 9
327 5 10
273 0 0
308 11 1
473 8 25
485 2 18
260 15 10
3 10 26
13 1 10
219 2 28
444 8 15
222 16 28
113 1 18
29 8 1
431 16 3
244 4 9
134 3 2
479 3 10
96 15 24
437 8 23
173 13 6
467 2 28
116 0 3
142 12 28
384 0 13
289 14 25
159 9 26
441 9 24
246 12 3
182 12 4
223 8 11
260 13 21
354 3 14
119 12 28
263 1 26
427 7 2
415 9 17
280 15 6
364 4 9
410 16 15
291 12 9
234 1 15
346 6 18
78 9 26
3 3 27
491 1 12
295 13 14
466 1 27
300 1 24
228 16 11
176 16 7
151 1 24
466 14 12
88 10 1
259 15 1
453 15 21
191 9 15
94 16 0
267 5 19
329 6 10
456 4 1
351 9 4
235 15 4
419 4 13
493 6 22
317 3 4
216 13 22
359 12 23
27 3 1
55 6 7
101 8 24
86 13 2
113 8 4
13 10 15
430 6 9
472 1 8
8 16 17
490 5 5
193 6 7
289 8 20
163 9 13
81 10 26
274 14 28
82 8 23
20 7 18
11 14 22
275 11 5
190 9 13
433 0 19
400 14 16
116 6 19
268 10 3
166 5 5
123 8 26
416 15 19
274 7 7
30 3 16
53 11 15
283 15 10
38 8 2
362 3 5
97 15 9
274 14 8
128 13 21
162 2 6
79 10 10
417 16 1
370 14 20
331 7 27
112 10 24
280 5 14
0 15 6
87 6 10
264 0 14
248 4 2
41 9 15
252 16 24
432 5 8
237 2 12
143 2 24
219 12 15
452 9 1
260 7 24
229 9 25
69 16 12
118 5 20
318 3 24
430 1 16
380 15 24
399 9 4
278 9 16
404 12 5
449 14 19
263 14 15
476 5 17
268 15 8
221 12 0
150 13 4
444 9 23
497 11 17
401 2 23
262 12 27
254 13 7
270 11 8
289 13 18
451 8 2
118 9 26
348 1 9
54 7 27
120 5 5
8 2 3
232 8 7
258 14 24
191 1 19
168 4 25
439 2 8
81 8 25
278 1 24
31 12 11
374 12 26
310 5 6
377 10 7
179 13 17
406 11 24
293 6 2
479 16 13
87 14 1
368 5 4
177 4 1
138 15 22
62 12 12
334 0 8
376 12 5
168 8 2
348 3 15
152 15 21
336 11 26
259 16 21
69 11 27
331 15 20
296 10 20
412 16 16
237 4 0
15 14 20
362 9 13
252 8 15
221 14 3
384 13 26
349 7 0
363 1 19
184 0 2
474 10 2
438 13 25
453 3 12
128 0 22
0 6 3
378 13 22
245 16 10
279 4 13
426 11 12
17 11 28
151 12 26
234 6 9
120 16 0
138 1 14
376 0 23
337 6 7
81 11 19
147 4 10
252 9 26
452 3 25
324 1 22
323 3 17
216 14 5
366 0 12
177 10 23
445 4 9
466 11 11
216 5 19
308 9 3
242 11 18
457 12 15
447 14 15
483 14 26
234 1 15
37 16 11
431 8 19
150 3 12
162 11 27
129 1 22
11 5 0
70 14 22
330 16 13
494 15 28
339 4 19
354 0 25
297 9 13
252 10 21
33 11 9
376 11 6
492 7 21
438 0 9
279 7 18
171 10 26
457 7 1
10 6 2
123 14 28
41 12 25
20 1 10
359 7 23
364 13 8
212 3 7
359 5 26
460 11 23
25 6 12
37 9 11
19 9 14
486 3 8
60 1 1
329 8 18
81 10 18
268 6 28
32 9 11
63 1 17
307 4 8
164 0 4
170 9 11
289 7 27
188 9 3
485 13 14
290 11 18
238 11 22
494 8 13
271 9 25
226 5 10
223 11 25
499 8 5
344 13 1
26 0 26
59 4 23
205 7 19
152 12 3
289 13 13
354 13 15
24 11 8
96 12 23
167 3 9
152 6 19
465 0 19
100 7 12
147 3 25
16 10 0
48 14 20
372 8 16
378 9 21
300 0 25
239 9 9
357 11 12
433 7 1
440 15 1
373 13 24
81 4 20
498 7 27
253 0 21
126 5 12
151 13 23
137 4 9
338 7 25
222 3 2
335 12 6
382 13 23
317 13 4
217 8 10
263 5 11
30 11 10
253 3 0
287 7 15
407 16 27
158 6 21
229 1 1
98 15 15
128 14 10
492 15 10
198 0 4
450 6 24
220 15 24
378 11 18
307 9 5
20 15 13
461 5 15
249 2 26
77 13 0
143 5 11
370 14 28
87 7 2
386 1 21
214 5 4
422 12 16
16 10 2
383 3 14
379 4 16
174 14 9
288 2 20
36 1 3
375 12 20
304 15 14
39 3 25
182 13 21
427 7 23
256 11 18
322 2 5
53 0 28
294 1 3
261 16 27
56 1 23
371 7 2
154 15 16
161 12 12
146 3 3
246 14 25
145 6 22
62 9 26
153 4 27
228 0 14
13 8 21
498 12 1
27 6 19
489 0 15
434 6 21
374 16 26
32 0 10
233 6 20
199 1 9
119 5 17
129 3 4
65 3 17
101 5 27
82 4 1
184 1 17
174 8 15
447 15 16
327 4 9
23 7 2
289 9 27
280 16 2
137 12 11
467 0 24
39 7 6
0 1 6
115 13 18
88 4 20
410 8 24
211 0 8
439 11 24
93 5 26
180 1 3
225 12 8
435 3 15
325 9 13
293 11 28
314 15 24
241 7 24
20 1 1
268 5 24
386 13 24
1 1 22
80 12 2
391 13 0
417 12 14
99 0 13
245 5 24
19 14 4
78 4 15
124 7 11
165 4 25
487 13 21
135 7 17
339 11 0
15 13 6
212 13 11
308 3 27
72 9 5
397 0 9
224 6 17
416 1 5
68 1 9
433 1 3
478 16 8
248 16 20
469 13 4
30 9 1
414 15 4
236 13 21
206 9 18
476 14 9
380 11 19
123 6 14
220 12 2
103 8 27
131 8 15
446 4 23
54 12 24
417 16 16
266 16 9
276 3 24
470 1 10
190 3 25
79 10 4
290 16 14
394 11 13
154 1 26
409 3 22
373 4 22
92 6 10
57 5 10
248 11 11
61 10 21
119 3 5
449 8 20
423 7 11
277 3 28
210 2 18
228 5 28
351 4 4
429 8 5
392 3 24
63 0 14
466 16 9
68 9 11
246 9 11
452 2 17
34 9 25
416 5 10
340 16 4
309 4 13
221 8 15
225 11 27
10 3 18
77 4 10
378 15 6
27 7 3
277 1 20
4 2 4
157 12 27
466 3 14
307 0 27
339 1 20
174 0 0
46 11 6
459 3 27
332 9 14
75 10 19
234 13 15
87 4 19
45 4 23
485 4 10
478 16 19
372 13 8
106 0 3
432 14 9
355 12 17
121 12 26
167 5 11
485 5 14
152 5 24
46 4 1
444 8 27
447 13 6
337 15 16
209 1 20
348 11 18
84 2 0
481 6 11
405 12 26
347 15 8
491 3 24
335 9 23
416 4 5
305 1 17
326 3 28
375 8 1
149 6 27
187 7 27
252 6 7
268 6 28
350 4 0
144 3 0
79 2 5
317 12 3
162 0 28
95 15 26
191 3 17
96 3 25
455 14 13
80 5 2
499 11 12
84 11 26
456 2 28
259 3 4
266 10 22
246 6 24
351 3 3
61 3 24
275 14 24
136 12 25
144 14 16
130 1 27
452 13 26
204 12 5
192 6 28
305 13 25
161 7 10
152 5 21
446 16 6
34 7 8
30 1 4
254 13 10
69 7 12
230 3 1
281 16 6
232 11 3
224 3 9
184 4 23
164 12 13
379 15 25
430 7 11
310 8 26
225 11 9
242 13 8
49 15 5
105 16 23
257 6 10
318 14 3
41 4 9
316 16 6
416 3 2
329 0 18
302 3 9
464 14 25
91 8 24
276 14 26
476 7 17
477 14 19
269 4 28
83 3 23
301 0 19
306 1 12
241 11 8
293 3 28
135 5 19
46 15 7
120 10 5
360 6 22
464 16 24
191 7 28
280 7 17
268 12 3
298 9 15
266 2 17
444 12 16
258 1 26
0 0 18
247 11 15
258 1 3
141 6 6
207 2 25
248 7 24
353 6 10
250 4 10
134 15 6
124 0 2
466 10 23
227 13 5
180 2 27
251 11 20
374 8 4
477 6 25
362 11 26
349 15 27
477 11 14
213 0 15
258 11 16
373 4 0
8 16 28
192 14 24
235 8 14
97 6 22
477 4 3
305 1 24
380 2 6
146 4 6
70 12 2
365 0 17
178 12 2
366 3 12
364 6 0
32 4 4
92 15 10
34 9 21
314 4 7
437 15 9
340 10 13
48 4 23
142 6 9
213 4 26
286 16 8
343 8 2
331 7 28
241 1 20
471 0 7
425 11 5
87 4 12
70 15 27
469 6 24
32 8 16
241 8 16
68 10 17
334 6 10
50 11 21
198 4 14
6 6 6
69 12 10
437 15 12
152 11 13
398 3 13
150 6 0
53 9 14
427 6 28
34 16 10
264 13 8
390 8 0
410 8 20
284 1 9
66 7 18
341 9 12
193 3 10
364 12 26
346 1 17
260 9 10
129 7 4
387 9 0
167 0 27
209 4 5
177 0 20
145 13 16
120 10 11
383 7 6
497 10 4
180 11 26
6 12 24
358 9 18
396 11 17
367 10 6
329 9 8
414 16 7
368 16 0
295 15 13
175 2 20
316 16 8
58 13 22
417 7 16
109 7 7
71 16 16
137 13 17
32 5 22
402 15 12
268 13 16
201 7 5
287 5 23
484 4 7
298 14 16
389 7 26
28 1 22
182 10 23
292 11 17
113 5 23
445 15 2
383 12 1
326 1 4
336 10 0
73 11 7
437 16 17
497 14 12
32 10 20
358 11 17
191 8 27
142 2 5
32 7 17
93 14 24
209 4 7
78 12 5
125 15 2
177 11 23
334 6 24
369 1 10
372 8 2
278 11 20
384 15 28
262 6 0
254 11 16
67 0 1
393 2 3
40 7 5
366 10 8
377 14 23
445 12 16
175 1 27
16 0 2
205 11 11
249 4 17
297 1 14
203 8 16
142 10 17
262 2 17
104 2 7
73 8 12
427 1 0
259 6 20
477 3 5
90 1 22
431 6 24
404 14 12
172 7 5
256 11 14
37 0 14
466 10 20
117 5 7
374 13 12
466 13 18
493 16 16
418 7 23
449 8 15
264 9 26
336 16 18
362 3 3
446 6 25
250 2 7
80 4 18
278 13 7
267 7 22
385 14 24
31 15 27
275 4 10
423 3 11
134 3 18
59 9 28
482 8 14
496 11 25
497 3 24
207 6 16
60 11 19
119 7 19
52 2 20
106 0 23
350 10 0
333 8 11
445 2 9
353 3 11
187 6 2
287 12 0
396 11 21
156 0 21
494 10 3
392 9 17
416 7 15
147 12 21
424 13 23
149 10 25
63 5 4
406 0 6
431 4 12
3 11 2
175 8 0
361 12 28
274 15 24
207 6 6
148 7 13
352 3 7
97 12 21
284 9 12
468 4 12
279 11 26
324 15 13
331 1 3
297 11 25
357 13 20
274 1 3
499 8 5
78 15 9
161 7 17
490 10 19
136 4 11
216 0 20
245 4 10
415 5 11
195 10 20
36 16 24
230 0 26
179 15 0
128 8 6
336 11 19
438 12 9
380 16 27
121 4 0
487 13 27
192 13 17
352 12 26
145 11 25
134 0 25
112 4 3
80 4 20
429 12 26
218 1 24
289 0 21
490 6 26
71 3 16
112 8 23
393 1 8
23 11 17
154 3 2
338 8 26
381 14 27
475 9 20
330 1 5
428 16 26
76 10 16
267 9 8
478 8 0
114 2 16
60 4 3
369 1 2
168 7 11
189 8 3
385 2 20
285 13 2
274 6 14
462 5 24
298 7 20
101 12 15
214 6 10
394 0 7
254 11 17
224 3 12
429 13 17
101 5 0
122 14 15
69 4 21
314 2 2
42 3 1
148 16 11
87 8 10
455 15 6
355 4 22
319 2 3
132 5 25
159 11 7
384 1 4
414 5 20
303 16 17
370 2 8
117 11 9
181 8 24
21 12 21
189 4 16
342 2 23
152 16 22
219 8 22
373 13 10
468 14 10
273 5 6
156 7 19
270 11 24
82 3 14
136 9 26
490 3 1
293 7 1
445 8 20
232 7 7
360 10 6
171 11 13
235 8 7
250 5 18
373 11 25
317 5 17
483 15 26
104 4 23
487 4 25
299 8 16
288 10 27
464 16 12
438 13 9
6 8 15
490 4 15
208 8 1
457 3 5
239 2 16
121 0 4
340 12 26
171 1 19
89 13 9
98 8 11
29 1 3
189 10 3
55 11 17
201 10 1
65 9 17
498 11 27
35 7 8
60 11 13
144 8 12
451 8 0
383 12 1
440 14 2
20 16 13
201 9 11
414 13 4
305 7 19
187 3 20
109 2 7
307 10 5
197 4 8
381 14 18
251 0 22
31 10 5
151 2 13
327 13 9
282 10 2
5 9 23
449 6 18
245 2 2
43 13 2
347 4 0
173 8 8
301 13 9
410 10 22
191 3 28
110 1 1
291 15 13
36 10 21
178 11 19
226 14 22
456 12 3
220 14 6
328 14 24
7 16 9
479 11 1
304 11 26
176 5 19
129 16 22
335 7 16
102 3 17
121 2 10
17 2 23
263 9 15
486 2 9
96 11 2
497 7 4
294 8 18
395 2 13
302 3 11
353 13 24
357 10 2
150 13 1
333 11 25
239 8 16
144 10 23
72 16 11
186 16 18
15 12 3
12 2 16
55 9 4
252 1 0
205 13 23
331 6 23
333 7 13
11 10 14
389 8 25
338 5 7
331 8 1
293 6 23
490 0 5
139 6 1
113 16 11
64 16 13
7 0 20
154 1 14
52 6 17
361 14 13
401 16 15
434 9 16
482 13 28
80 5 2
461 8 12
363 13 15
222 8 11
489 2 9
71 6 5
433 14 17
462 12 20
427 7 5
477 4 15
367 5 5
170 15 7
295 10 12
232 15 20
6 7 17
247 15 20
76 1 10
140 2 18
8 8 24
344 15 4
211 1 6
151 5 8
8 13 28
325 7 2
343 10 1
277 2 22
42 16 7
19 10 14
492 8 27
214 6 10
143 8 5
18 5 16
421 4 5
2 16 2
144 15 21
404 10 15
16 3 17
168 4 12
362 2 19
411 6 10
186 16 15
406 15 0
444 14 27
158 7 5
355 7 15
21 9 8
288 10 1
205 14 13
294 11 8
414 7 19
92 16 8
319 11 8
134 1 8
100 15 21
173 10 1
462 16 3
44 13 21
291 3 8
363 3 23
124 4 1
166 16 15
261 1 3
389 11 2
266 10 20
40 13 20
308 11 19
278 9 23
253 12 17
373 2 26
256 8 23
448 4 2
286 10 1
119 12 17
66 9 1
274 14 19
464 14 10
485 10 7
261 11 9
54 4 6
242 12 20
73 16 27
469 4 0
391 5 22
146 16 6
25 10 12
51 1 15
185 16 3
286 5 23
140 11 9
360 8 7
495 2 10
267 8 13
64 12 17
345 3 8
208 1 9
281 4 9
285 2 10
312 0 1
37 16 16
243 12 13
274 11 9
290 12 8
25 2 23
493 11 9
263 12 16
71 5 15
336 9 15
195 3 10
247 8 27
118 2 10
250 8 22
180 15 22
452 1 14
164 2 25
399 1 9
129 13 12
103 8 26
447 5 27
414 3 26
97 10 15
483 8 22
151 13 4
264 13 12
12 1 6
379 4 26
245 11 0
207 5 15
405 14 23
138 10 10
47 9 5
388 8 20
258 9 21
196 4 21
449 16 1
251 0 28
478 2 22
37 13 18
386 0 1
52 14 24
120 7 0
210 6 10
235 6 23
394 2 22
131 10 15
104 6 23
457 16 13
306 14 20
487 9 1
347 3 23
455 7 20
51 13 8
237 6 14
311 3 5
180 5 0
440 6 22
87 7 28
307 4 21
218 2 11
65 15 24
268 13 26
211 1 20
149 11 2
495 6 15
101 7 18
368 12 28
138 6 21
100 4 17
227 16 24
245 10 7
330 16 20
290 2 8
176 0 8
453 9 15
231 13 23
74 11 25
496 16 8
332 7 10
412 6 5
498 1 12
351 11 27
492 10 6
469 8 21
109 9 1
85 8 28
243 11 21
315 0 16
239 12 11
383 9 17
56 5 16
495 1 8
28 15 25
292 7 28
252 8 25
356 15 26
214 13 8
484 9 4
280 12 24
492 5 5
371 8 23
263 9 28
73 10 27
70 0 5
362 1 23
462 16 13
59 11 2
201 7 13
447 4 7
465 0 23
76 5 10
190 2 11
56 3 23
269 12 20
31 6 0
111 14 11
419 6 0
60 5 3
281 8 23
275 1 1
322 0 19
458 2 3
340 4 10
287 12 11
415 1 24
186 0 19
139 6 5
6 13 24
101 15 26
37 6 27
181 4 26
369 10 18
179 7 18
150 11 17
90 2 11
129 8 23
29 15 15
240 2 25
123 2 24
219 2 17
242 15 15
18 12 6
406 6 14
57 1 16
256 10 25
202 8 17
216 9 1
229 2 7
132 7 3
118 9 2
310 4 27
133 7 6
295 16 1
31 9 23
381 15 14
278 0 6
115 0 10
449 10 6
384 8 12
41 13 3
404 15 0
301 7 11
75 0 19
355 3 18
463 2 7
489 7 3
246 5 11
377 2 11
493 4 26
439 15 5
245 11 4
333 10 27
258 2 27
422 13 7
24 4 8
379 15 8
69 10 13
22 14 18
57 15 0
396 3 9
223 1 4
258 5 25
99 1 20
312 7 15
209 13 13
487 13 4
408 3 20
130 13 4
86 14 18
368 4 7
132 13 2
1 8 4
67 12 2
235 6 18
225 4 16
264 5 2
480 14 23
422 5 21
376 2 28
38 8 11
404 5 20
149 5 5
34 16 18
68 1 0
364 4 4
234 0 0
268 15 20
124 8 6
163 9 5
20 12 13
319 12 14
415 2 26
483 14 1
13 0 18
297 4 27
84 14 27
62 16 28
375 6 23
160 2 3
483 7 11
358 9 11
19 13 24
161 13 9
32 8 10
229 9 11
207 1 10
152 14 25
133 9 4
308 14 11
129 6 23
198 6 6
188 4 23
356 10 24
126 0 27
106 13 13
427 14 3
498 6 10
301 15 1
107 10 15
361 10 1
399 11 11
398 5 13
27 15 0
311 7 16
25 8 20
460 9 8
439 11 16
78 3 0
296 10 26
406 10 18
381 13 8
452 5 26
30 11 24
270 0 15
381 3 25
378 5 6
225 3 25
4 8 3
135 2 22
229 10 11
345 14 5
328 14 14
311 11 9
254 15 6
390 3 17
289 5 18
86 0 0
388 12 14
171 2 8
259 0 10
142 2 1
261 2 16
335 2 5
273 15 21
465 14 25
339 10 8
283 0 1
212 3 22
441 2 18
270 4 24
298 3 27
457 6 21
325 5 1
128 7 17
271 11 20
274 11 8
336 0 6
385 10 10
86 12 8
323 12 2
210 3 9
45 9 18
310 10 11
280 7 28
198 7 21
14 6 24
489 8 13
223 4 20
106 10 5
406 6 3
462 0 7
30 11 11
107 6 8
97 15 19
223 1 13
175 16 1
172 10 12
481 12 10
11 9 0
422 10 0
101 5 10
489 9 4
400 11 26
69 2 11
253 16 22
80 11 2
322 7 7
476 3 17
201 11 9
2 15 12
36 15 5
278 1 4
171 9 13
298 12 4
241 3 5
280 5 10
224 0 27
97 0 11
86 7 5
174 5 22
306 10 5
412 5 23
22 1 27
330 1 4
371 10 24
242 13 9
13 11 25
49 1 27
447 13 22
441 16 11
282 7 15
281 14 23
102 8 2
417 15 6
382 7 0
446 3 2
433 1 3
353 8 25
492 12 7
109 3 9
286 15 28
279 15 4
497 10 23
396 15 25
70 5 3
434 11 10
498 13 22
166 14 22
138 7 18
486 14 6
56 8 25
55 14 19
333 1 21
316 12 7
71 3 19
160 8 27
434 8 28
173 10 16
346 16 24
255 14 17
346 9 28
155 12 7
492 4 17
22 5 0
9 2 8
85 15 27
467 7 19
458 4 13
143 16 5
468 4 9
164 0 28
193 14 24
32 12 12
367 2 10
84 10 7
117 12 18
218 4 28
125 4 5
261 13 11
313 0 5
71 12 18
14 4 5
219 7 22
440 12 13
344 4 22
2 9 27
400 15 6
312 15 17
429 0 17
467 6 12
62 15 16
65 4 26
181 11 0
283 13 7
354 13 4
413 14 11
269 3 18
377 6 21
322 14 16
137 14 13
167 2 12
424 2 16
287 7 7
42 9 27
14 8 20
20 7 27
110 12 9
297 4 10
182 11 20
270 10 22
28 14 7
136 1 18
37 9 24
364 5 22
343 9 13
70 6 11
1 5 23
331 9 5
370 7 25
366 4 12
122 7 8
301 14 6
195 8 27
166 3 13
26 9 18
211 1 0
404 0 7
265 11 16
212 12 24
29 14 18
64 9 18
179 0 3
297 2 21
195 16 16
383 13 10
254 5 26
439 15 12
91 4 26
79 9 16
204 5 23
287 7 22
494 1 17
121 13 19
88 11 28
433 10 11
74 6 2
139 9 23
350 1 25
476 11 16
142 4 4
412 12 14
193 5 5
411 6 5
458 1 3
474 11 22
160 15 17
209 0 18
53 16 11
496 2 25
425 7 8
52 6 24
128 6 6
250 11 3
446 8 22
333 11 10
233 7 5
44 10 4
220 4 12
147 0 23
38 8 8
195 12 11
23 14 10
117 16 19
148 5 15
179 10 25
162 14 5
38 4 14
31 8 21
263 12 26
345 9 16
448 11 8
248 14 22
29 6 11
451 14 28
328 12 3
318 0 13
323 4 13
61 10 9
318 10 17
148 14 18
307 8 1
280 0 3
385 12 20
112 6 20
385 16 14
463 12 27
84 5 26
465 14 0
431 3 28
116 2 19
112 2 23
417 11 6
355 15 25
349 15 3
12 6 19
311 3 21
164 10 4
390 1 0
15 12 14
474 4 26
319 11 3
290 4 8
103 15 16
441 8 26
292 14 12
88 8 15
38 13 17
365 9 22
363 2 8
300 12 9
197 7 0
64 10 10
333 12 24
258 15 19
189 5 18
272 15 23
420 8 15
419 10 7
365 15 14
296 7 16
278 7 19
412 15 7
438 0 26
388 10 27
151 11 26
195 13 26
73 3 27
287 15 19
356 3 23
342 3 9
409 2 28
495 10 13
354 7 1
79 6 4
136 14 10
489 14 4
343 0 28
340 11 26
338 3 21
185 11 12
409 1 7
219 13 0
450 1 7
92 4 12
389 8 9
322 14 11
326 4 25
248 9 24
250 15 5
166 14 20
499 5 13
106 2 3
385 0 18
362 3 7
365 10 9
212 0 20
371 7 3
486 14 7
155 11 17
107 15 4
358 16 5
129 6 24
148 6 14
35 1 21
361 11 18
273 8 11
251 2 1
136 10 28
397 13 26
234 13 18
157 13 6
463 6 2
471 13 4
75 9 15
437 14 19
253 2 3
113 16 15
479 0 23
41 12 0
35 5 22
216 2 23
222 13 9
318 7 19
253 10 22
127 5 22
13 9 5
264 5 24
250 11 26
499 11 26
60 9 11
373 10 18
30 15 10
89 13 16
400 4 7
42 3 27
389 14 19
278 5 0
96 0 13
156 10 12
102 0 20
234 10 19
85 1 20
59 15 14
487 12 11
256 15 14
41 13 20
276 7 11
293 14 26
460 2 16
270 16 10
461 9 16
477 13 2
103 13 26
268 5 12
161 6 10
72 6 14
446 5 12
199 8 1
139 12 27
468 4 28
213 14 14
173 11 5
100 4 26
40 14 21
294 12 10
343 14 6
286 2 5
202 7 23
490 14 18
436 0 0
70 16 18
85 4 10
210 8 3
496 14 18
238 1 17
149 11 2
164 3 18
201 9 1
344 6 14
185 3 22
209 10 15
280 11 10
95 7 10
270 1 23
142 11 9
150 0 17
375 2 1
372 10 2
355 14 18
43 6 6
127 14 22
430 11 12
386 5 23
490 16 10
465 10 4
347 16 2
33 0 26
184 10 10
457 10 9
471 15 7
324 3 5
346 1 26
220 3 6
258 2 28
247 8 20
362 0 8
24 4 4
438 4 27
292 1 18
56 15 22
276 9 26
127 5 25
456 13 17
129 8 6
338 16 7
462 13 17
11 4 3
377 2 14
314 16 23
441 5 3
440 6 21
459 7 18
499 1 28
304 10 25
88 5 15
95 5 4
357 3 1
390 13 15
190 1 17
190 3 5
12 14 16
46 15 20
55 12 18
42 9 7
338 2 2
273 4 8
339 0 11
363 9 0
378 10 14
448 9 25
432 4 9
18 2 24
462 8 14
46 10 21
120 11 24
478 1 4
464 9 7
453 16 20
331 7 18
121 8 1
343 1 28
42 5 1
353 16 20
148 13 17
156 16 0
358 15 0
84 3 4
481 14 17
421 0 3
333 1 15
467 10 23
166 15 7
295 14 7
126 10 11
402 3 5
404 5 7
166 15 16
256 1 25
51 6 19
472 5 18
394 13 16
372 11 25
70 2 8
416 10 26
52 6 0
95 11 8
439 1 13
27 9 13
132 6 17
494 5 26
170 6 13
221 10 10
330 13 9
417 1 4
320 10 1
101 8 26
134 10 26
462 6 17
333 3 26
60 13 15
62 14 23
66 14 25
388 8 28
457 3 1
30 7 26
263 9 4
31 0 11
477 15 13
453 10 11
310 11 6
18 10 12
448 1 12
299 11 28
8 10 28
390 3 27
491 16 7
455 14 1
151 8 20
470 5 18
15 9 7
383 8 16
188 0 17
39 15 15
179 11 23
154 8 0
281 15 15
134 13 21
98 8 23
101 3 7
88 15 13
490 7 24
155 8 8
440 13 12
206 6 19
296 12 15
446 2 26
326 8 4
360 16 13
52 13 27
470 10 14
457 8 20
17 1 16
443 5 7
341 6 2
451 6 28
252 9 8
269 14 11
400 13 27
335 3 4
321 4 13
93 14 14
219 14 22
142 12 17
488 11 21
397 3 26
159 6 26
201 12 18
328 14 1
161 14 8
207 10 0
359 7 12
309 6 14
406 0 18
4 8 1
475 13 5
98 4 11
356 10 25
55 0 8
172 6 21
174 8 7
20 12 25
254 4 7
443 12 27
432 15 27
103 15 3
490 13 23
345 9 11
104 9 1
280 7 16
211 15 20
116 5 20
436 5 14
7 2 8
458 14 1
215 14 10
200 8 24
147 15 2
491 2 10
366 1 2
229 13 15
337 12 20
286 8 18
342 4 9
301 9 21
127 1 26
259 6 19
344 2 6
311 5 21
51 9 15
246 10 13
442 8 18
309 6 4
436 8 15
367 5 24
184 12 0
89 11 9
343 8 15
21 10 6
105 1 22
164 13 14
192 4 2
410 6 1
479 11 0
56 8 27
231 2 6
86 2 5
293 5 14
482 2 0
137 3 19
170 1 3
49 1 20
129 4 13
167 2 14
483 12 9
115 16 16
339 7 6
392 11 27
485 16 20
482 14 14
143 10 25
185 5 26
19 0 21
392 1 25
224 4 8
246 2 11
10 16 15
459 15 6
498 9 13
78 13 16
353 4 10
489 2 8
135 5 0
468 9 13
393 3 1
362 2 8
465 11 9
104 14 15
498 14 3
447 8 27
342 15 28
161 10 18
352 15 9
160 8 6
152 11 10
227 6 21
234 15 2
380 3 11
302 14 3
140 12 22
163 3 11
81 8 25
117 10 5
385 11 15
414 12 9
161 1 18
229 6 11
341 4 9
47 15 23
57 13 5
144 9 25
296 5 22
189 15 24
388 4 20
319 7 2
267 9 23
473 11 17
461 7 17
176 2 13
288 7 13
130 7 24
133 9 21
141 7 0
458 1 5
360 16 8
117 3 22
398 1 10
163 11 0
264 5 12
467 15 17
169 12 19
1 4 7
187 1 19
92 3 5
483 13 12
94 13 26
10 12 11
270 7 8
484 8 22
58 13 12
7 10 11
275 16 0
492 7 28
52 3 6
25 8 16
326 5 13
124 3 3
443 8 4
377 2 7
233 12 26
426 7 16
261 6 8
453 12 8
190 8 28
91 0 27
213 3 21
180 2 18
344 16 23
442 6 16
192 12 10
87 4 10
342 5 22
22 1 3
302 1 28
364 15 6
223 11 1
218 2 20
78 15 16
424 4 3
126 11 9
4 14 9
180 2 0
83 1 3
417 1 3
480 12 28
472 7 13
144 2 28
460 7 18
54 15 23
47 6 6
244 3 7
387 11 2
181 4 2
325 4 7
481 0 8
338 3 0
255 7 6
55 13 3
461 3 0
275 14 8
338 4 25
100 0 11
6 14 7
103 1 28
42 13 26
66 1 9
418 16 11
441 2 0
25 13 11
424 9 1
313 1 16
14 7 9
151 2 14
433 5 21
133 1 4
294 14 11
25 11 28
255 10 19
120 10 1
79 4 27
220 12 23
322 6 13
129 8 17
396 11 24
132 11 24
100 16 19
265 16 19
181 4 7
49 15 23
59 5 6
18 5 13
350 12 14
115 2 0
246 13 7
113 3 28
482 1 2
15 13 14
10 0 11
485 12 7
469 9 17
334 3 7
36 5 24
373 3 22
105 16 1
142 13 11
490 10 12
176 15 21
226 3 0
20 6 24
168 16 12
315 10 0
104 9 22
331 14 23
210 8 5
499 13 26
485 9 25
197 0 1
28 8 25
395 8 5
206 4 9
239 4 9
246 9 12
329 7 2
17 15 1
278 3 14
57 15 15
291 3 25
340 11 14
326 2 11
47 12 3
115 15 17
289 5 1
301 0 10
142 2 18
339 1 22
453 7 13
45 9 15
470 13 8
399 8 13
40 15 18
332 10 7
48 8 24
378 15 21
92 8 3
198 9 21
346 12 11
238 0 16
142 15 20
21 14 3
371 2 5
0 1 17
282 7 26
443 13 26
81 13 4
35 0 7
234 7 2
311 6 20
30 0 10
210 11 21
176 5 7
462 14 7
286 15 3
272 2 24
140 8 19
309 2 2
288 2 26
485 12 13
493 14 15
278 11 6
435 3 21
150 9 27
72 0 8
309 16 22
303 16 18
251 15 13
229 10 17
235 0 11
60 15 26
142 6 19
110 11 20
474 0 25
209 4 27
250 10 15
161 0 25
132 4 9
475 12 8
444 6 15
464 10 0
172 6 24
234 7 13
328 7 21
117 1 3
13 14 21
29 2 25
334 8 6
21 9 15
467 15 4
342 10 8
124 4 23
43 0 13
111 0 4
394 8 11
442 4 4
165 9 9
273 14 22
412 12 26
162 1 26
337 12 14
456 11 25
379 0 7
421 0 28
389 10 7
155 10 14
446 10 14
351 2 19
479 15 6
126 2 24
285 10 24
25 5 19
180 13 20
297 11 27
307 1 27
396 16 16
427 1 11
168 4 18
277 1 14
95 14 16
186 14 19
111 12 17
489 16 12
109 5 17
305 9 18
168 16 21
301 13 7
454 9 5
170 12 16
22 4 12
423 16 10
129 12 4
369 16 21
477 11 4
25 15 23
200 5 28
240 14 16
388 16 11
303 16 5
50 6 16
254 15 3
98 3 12
311 0 4
412 3 18
360 6 11
98 9 25
458 13 15
449 14 11
0 15 2
220 0 23
222 5 1
261 9 13
148 16 28
305 6 24
239 0 26
329 0 19
364 15 12
421 5 25
55 14 15
26 16 10
445 10 5
331 3 22
455 7 6
460 0 26
411 15 25
18 6 11
414 5 17
17 13 24
178 3 19
224 12 10
324 6 13
133 4 21
386 11 24
73 14 14
301 2 24
405 4 17
493 16 20
464 0 9
466 14 11
316 7 22
363 9 24
63 5 4
254 5 4
453 14 6
178 6 6
336 15 16
419 10 12
216 13 23
186 7 14
197 8 3
2 10 20
164 11 5
357 11 22
454 3 18
198 10 4
251 1 4
183 4 4
396 1 24
158 1 14
326 2 13
479 1 16
439 14 16
372 2 20
425 3 20
158 11 22
427 15 4
448 7 21
465 3 28
75 16 19
260 14 22
180 8 9
111 0 22
177 2 26
191 2 21
459 10 10
205 3 23
304 15 3
221 8 23
177 14 17
238 6 19
122 3 16
171 7 15
429 10 13
37 8 12
280 1 9
118 13 21
411 14 12
387 14 13
35 3 10
33 2 22
65 12 4
493 1 11
175 6 5
39 7 11
130 11 9
290 14 25
237 3 16
387 14 28
388 15 28
219 6 8
107 3 20
328 9 17
21 7 14
241 13 24
235 5 6
202 10 17
116 10 26
466 5 26
314 1 6
202 12 27
482 0 3
405 0 28
404 4 16
372 7 23
74 15 25
479 15 28
97 7 4
29 0 16
424 15 22
42 4 22
453 4 0
451 14 17
138 1 27
298 9 28
56 11 7
253 15 20
101 10 23
130 8 20
173 6 24
34 9 5
204 1 28
457 14 9
103 5 17
486 7 28
478 5 19
397 14 27
464 14 9
293 13 27
200 11 23
99 14 26
251 16 0
248 8 18
123 12 20
263 6 10
148 4 13
180 8 4
116 15 5
488 0 28
197 4 28
368 16 12
137 9 12
181 16 15
54 2 6
275 11 20
74 11 0
438 11 5
171 0 12
39 0 14
111 16 15
387 10 13
396 1 14
296 7 16
425 13 10
135 5 2
79 1 15
30 10 25
112 4 3
65 0 15
422 1 12
265 14 27
383 2 25
381 12 27
418 3 23
54 14 26
209 10 1
400 6 9
351 14 12
327 1 11
181 7 27
225 8 22
478 0 0
294 3 15
21 1 6
54 12 16
89 0 22
230 15 20
267 1 8
19 11 20
326 2 7
80 12 8
302 10 28
43 2 15
222 3 14
457 8 15
24 6 0
371 1 21
63 9 3
231 16 4
53 5 18
15 5 10
301 8 10
19 16 0
30 4 17
2 16 22
373 0 25
42 0 3
169 11 24
440 6 13
396 9 24
395 0 28
340 14 27
15 13 25
346 9 22
441 5 25
117 8 11
205 0 7
440 7 1
143 16 3
305 13 12
67 14 27
84 5 5
287 3 24
140 16 19
118 7 2
349 3 28
151 2 27
420 13 6
448 0 20
90 8 9
336 16 12
2 16 15
309 5 23
426 16 17
58 3 14
203 6 10
69 13 26
436 3 10
361 13 27
253 15 25
48 3 7
47 8 2
320 16 25
110 15 8
349 15 1
214 8 3
421 8 6
35 9 23
464 5 10
124 0 2
443 5 21
473 4 26
17 12 0
267 5 16
296 0 4
410 7 2
170 3 11
356 10 6
363 6 11
476 2 10
313 13 15
201 2 15
72 2 6
231 12 17
296 13 17
253 12 7
486 14 25
158 9 6
100 7 17
181 1 8
385 15 11
32 12 26
428 16 2
449 15 21
388 13 17
452 16 8
381 9 6
3 13 12
322 12 6
457 10 20
450 15 3
290 16 18
161 5 7
250 15 27
221 15 20
454 10 17
470 14 21
217 12 21
298 8 16
208 11 17
430 12 27
3 3 5
76 11 1
447 8 12
138 8 24
81 8 5
117 2 27
374 4 1
11 16 20
348 0 0
28 7 19
442 12 15
217 9 22
396 11 19
323 4 10
133 10 17
235 16 10
274 10 15
428 16 15
143 4 9
207 13 12
135 16 0
72 16 5
218 12 27
428 7 15
311 3 14
444 3 16
483 3 10
400 12 9
487 12 4
139 14 22
249 7 20
40 2 8
254 3 19
12 7 7
386 13 7
213 0 11
465 0 3
199 14 15
10 6 13
438 13 17
419 15 11
200 6 23
310 10 27
184 2 21
55 7 28
14 0 13
11 6 14
352 10 23
427 0 26
473 1 10
69 15 28
120 4 2
391 6 0
28 11 22
323 0 0
478 2 14
25 5 10
365 9 21
449 11 26
403 0 26
465 7 26
370 3 0
209 14 6
234 3 18
431 11 2
61 11 9
84 6 13
452 5 25
364 14 21
260 2 13
18 6 13
178 10 10
214 2 19
378 0 7
133 15 5
341 5 9
41 16 18
322 10 17
378 13 12
80 2 7
210 14 15
161 9 7
228 15 24
76 6 8
118 6 18
305 0 11
153 0 13
145 15 4
458 11 28
78 16 6
204 2 3
20 4 0
218 4 14
206 12 10
199 10 28
403 15 26
177 13 26
326 9 19
113 8 0
484 15 2
331 1 0
306 5 8
387 11 22
242 9 19
272 13 1
237 2 3
19 3 25
470 1 23
205 6 12
108 11 3
412 5 16
110 12 17
365 1 24
303 9 27
71 5 23
71 4 2
278 3 5
178 14 5
387 1 15
367 4 16
370 6 20
90 11 16
359 5 21
22 3 7
133 10 16
401 3 22
215 6 26
290 14 12
85 0 27
73 13 26
56 11 7
418 15 17
488 9 6
133 5 2
237 2 19
241 16 12
325 14 12
367 14 1
332 14 13
79 9 23
218 1 7
270 6 3
174 1 5
488 15 8
81 4 13
373 16 11
58 6 2
74 12 6
403 15 19
213 15 16
339 16 3
182 10 26
218 12 14
323 0 4
283 9 14
404 16 22
415 3 19
248 10 5
132 7 5
490 1 6
190 5 7
234 14 24
2 7 24
337 5 27
30 14 10
325 4 7
323 15 4
390 0 18
301 3 14
271 4 13
195 11 9
401 5 10
73 9 25
246 4 24
109 3 21
107 11 9
492 5 10
9 6 23
158 6 10
34 6 8
99 1 12
264 16 14
453 13 21
228 9 12
151 12 6
111 7 27
102 13 26
390 15 26
93 16 12
81 8 13
212 1 0
451 2 25
472 3 3
405 15 14
47 4 26
302 14 10
219 3 23
255 14 23
32 9 23
4 1 7
325 11 18
366 12 16
488 1 22
397 16 21
83 9 7
13 2 10
41 9 23
217 12 9
175 11 20
13 13 14
346 12 20
374 9 23
37 1 11
474 7 13
309 15 16
248 10 11
18 10 13
205 10 21
199 6 13
429 10 11
14 16 13
272 9 12
97 5 24
468 4 14
359 8 3
344 8 2
296 16 27
351 0 27
390 9 15
87 16 2
384 14 25
0 6 11
217 2 3
484 10 3
348 2 25
257 10 16
379 1 6
88 5 20
182 15 2
415 2 14
156 3 27
352 1 1
106 15 14
494 6 27
462 16 1
275 15 6
117 1 13
85 6 7
359 5 15
268 4 26
218 7 14
197 1 7
345 8 12
230 2 25
312 1 4
193 16 24
223 10 3
475 2 0
362 3 24
497 1 19
445 10 28
272 3 26
32 16 7
397 4 8
489 5 25
371 9 19
172 5 21
393 8 23
414 3 19
26 9 26
121 12 12
151 8 15
404 4 24
156 10 6
430 7 17
272 13 25
189 9 10
389 11 4
222 7 23
182 5 12
412 14 15
379 5 18
57 9 6
95 5 25
75 1 27
405 14 15
267 1 18
126 6 5
381 4 7
385 13 26
366 15 23
230 2 8
361 13 2
51 1 17
260 6 12
315 1 3
352 16 20
186 4 13
112 15 6
446 1 20
463 6 14
421 13 26
336 7 25
227 0 25
333 10 10
220 9 0
317 15 6
61 7 15
102 4 22
325 15 0
100 5 20
86 2 14
109 3 10
27 13 20
374 16 23
254 14 28
12 7 20
287 11 3
252 13 3
119 4 12
94 13 24
327 0 18
435 14 17
18 14 10
181 1 11
454 1 25
487 14 17
476 2 8
212 12 0
4 10 12
82 9 6
283 4 27
118 2 19
406 10 20
183 4 14
298 5 10
305 6 22
3 10 18
275 1 28
192 12 18
155 4 8
383 12 28
362 7 27
444 6 1
78 5 18
120 14 20
85 7 7
28 4 15
285 7 10
403 0 7
442 10 15
377 10 0
72 13 15
215 4 5
206 1 5
303 14 9
21 4 25
299 7 27
265 9 16
203 12 4
168 4 5
312 10 6
249 10 12
499 0 11
293 2 4
155 13 2
402 2 16
367 9 15
124 7 17
126 0 11
317 11 25
471 15 22
375 8 12
152 4 22
249 13 24
5 10 24
142 15 21
478 14 24
362 5 12
0 9 27
343 4 19
321 11 16
394 13 0
456 4 28
467 8 8
129 4 22
322 12 1
5 7 13
66 15 1
195 6 13
277 16 22
421 6 7
17 2 4
12 6 5
41 0 12
413 12 10
223 8 24
377 10 26
118 0 16
291 8 12
42 12 18
376 14 26
467 9 7
181 14 10
356 8 6
9 4 14
136 15 12
121 9 18
320 15 25
334 4 2
137 9 5
478 16 24
455 2 10
145 14 17
47 4 22
262 5 28
378 9 6
313 11 25
436 13 28
22 12 23
72 1 27
38 0 14
340 14 8
156 6 4
248 15 23
420 3 10
143 2 20
73 0 13
461 5 21
325 10 27
336 10 1
279 4 21
254 15 27
205 12 27
256 10 27
82 5 19
264 9 6
120 10 21
33 5 11
242 13 7
324 0 28
336 11 3
98 10 6
497 15 8
211 12 2
22 2 23
225 16 5
55 9 4
348 15 23
175 11 3
206 10 8
226 10 8
364 11 3
16 6 19
403 5 24
37 2 14
50 1 18
266 8 14
497 2 19
252 11 16
384 16 24
287 16 27
446 5 18
389 9 20
401 1 23
227 16 16
222 16 2
411 13 21
336 10 13
442 16 14
80 3 0
423 16 20
65 0 21
46 14 6
193 10 1
320 2 17
21 10 18
136 7 20
131 8 23
445 2 8
367 2 21
286 2 9
300 8 15
467 10 18
339 6 18
102 4 26
49 15 23
292 1 0
303 0 0
194 14 2
305 10 17
450 14 28
185 1 4
92 15 16
218 9 7
34 12 2
72 11 25
221 6 25
410 10 7
380 8 13
378 7 15
218 15 9
51 14 5
320 14 27
146 8 18
441 11 14
124 4 5
435 12 13
115 12 23
209 2 19
355 7 7
394 15 21
369 4 27
383 9 16
394 11 20
71 3 12
464 7 3
61 7 21
493 4 6
254 10 14
84 2 1
263 16 6
23 12 18
394 16 7
381 5 19
108 6 12
309 7 24
475 7 8
296 10 26
130 10 9
376 12 11
179 9 17
267 7 14
483 15 2
352 16 15
189 1 2
367 2 25
411 2 20
356 13 28
56 14 24
44 5 9
4 0 2
368 0 9
216 0 11
233 10 21
365 16 2
169 13 6
341 8 0
275 13 16
447 10 0
82 10 19
354 4 23
165 14 17
444 12 23
369 4 24
37 10 8
307 13 14
241 9 5
254 0 14
327 0 8
53 5 3
61 14 13
180 10 24
474 11 19
449 9 27
60 4 6
22 10 8
388 6 9
223 8 13
260 8 9
107 16 20
125 2 2
178 11 0
322 2 7
23 9 0
75 5 24
285 2 16
297 4 9
317 3 25
57 7 18
380 2 19
102 5 4
298 5 14
127 8 28
15 7 7
124 0 12
316 11 5
58 13 10
119 10 17
439 15 9
475 2 15
57 3 18
265 11 25
285 14 4
394 8 10
408 7 2
443 13 2
60 4 16
234 0 7
378 7 25
404 0 4
206 15 13
355 4 13
310 6 24
209 4 19
4 2 13
58 15 9
488 0 2
295 2 5
406 12 26
37 10 24
473 11 9
456 0 16
157 0 28
255 1 17
209 12 28
296 1 13
104 1 9
97 13 14
365 11 0
294 2 3
185 9 10
274 7 9
481 4 13
298 16 22
237 2 11
93 14 0
100 1 0
335 8 13
384 1 11
293 16 28
221 1 3
296 5 14
382 16 1
337 10 9
5 9 2
149 15 4
429 14 26
90 16 16
325 0 24
478 6 19
85 8 22
34 12 20
324 11 28
251 6 24
32 16 21
198 2 16
337 8 28
365 1 10
97 2 12
200 4 14
89 11 3
128 0 3
3 13 21
338 6 12
269 1 12
468 15 21
16 15 9
363 2 10
146 13 15
285 15 7
222 10 13
137 7 16
78 16 11
479 13 22
333 3 17
45 10 6
333 1 2
328 8 8
16 10 22
124 5 1
303 10 9
496 1 8
389 4 26
22 5 10
317 10 8
84 1 19
438 8 4
7 14 16
349 4 4
278 9 25
232 9 14
373 0 23
91 8 27
239 1 19
457 6 25
235 4 14
440 16 23
33 13 28
385 13 13
298 15 8
118 6 14
20 16 4
54 15 28
336 12 24
216 15 7
230 12 0
22 5 12
231 6 26
139 10 16
401 3 26
222 2 6
43 8 7
495 10 10
454 16 18
40 4 17
225 2 6
139 9 23
342 10 21
372 10 11
194 15 15
188 10 22
283 10 19
52 16 24
121 15 26
456 3 28
63 4 27
148 7 2
415 4 11
368 13 15
196 3 27
273 4 9
498 13 3
64 8 17
338 5 8
147 12 17
94 8 4
0 11 5
21 10 3
321 4 15
404 10 4
0 15 11
338 6 26
44 8 8
116 13 26
324 7 8
406 3 14
421 8 9
371 3 0
451 3 24
486 4 7
123 6 4
403 6 25
394 2 6
323 5 7
13 16 16
207 1 7
497 16 4
358 13 0
219 9 21
215 5 1
276 14 27
106 5 9
270 5 22
71 8 14
11 7 10
110 3 12
59 12 13
246 13 19
398 1 26
17 10 17
21 16 16
331 11 14
215 2 27
433 9 5
17 3 1
494 4 20
64 14 5
346 5 28
81 11 22
199 7 24
392 1 18
42 14 25
267 10 13
413 12 22
111 5 25
38 11 24
486 8 12
153 7 2
252 5 19
203 0 1
348 11 1
351 4 17
239 1 4
359 12 3
131 11 25
136 13 15
460 6 3
274 10 21
136 9 2
263 15 28
480 16 3
82 1 24
323 10 26
36 5 13
312 11 22
298 8 18
217 1 13
209 0 18
341 5 15
218 7 13
233 15 22
453 0 8
78 7 4
112 1 25
170 3 25
133 12 28
85 12 7
264 12 11
255 8 28
236 5 17
489 2 1
494 11 6
256 0 7
422 11 7
183 14 18
493 5 15
276 10 22
315 10 18
390 4 2
339 6 27
13 11 14
245 7 15
417 3 16
272 2 0
344 9 18
303 2 11
46 4 25
368 3 5
257 7 13
179 12 21
132 11 13
408 16 16
252 2 11
387 0 5
101 5 7
365 3 28
486 13 11
108 5 26
161 0 28
29 5 20
21 0 10
493 12 26
198 5 4
452 7 20
201 6 15
411 0 12
388 1 19
495 12 3
289 2 27
241 13 21
256 12 6
386 14 8
115 7 5
428 6 6
480 9 5
341 16 26
116 1 16
171 1 18
395 13 14
395 13 21
290 15 28
201 0 5
268 7 20
251 15 4
180 15 27
262 11 25
28 10 18
41 4 11
161 14 13
13 15 18
290 12 20
60 6 6
394 5 13
219 4 26
100 5 5
115 6 20
479 13 28
185 10 18
484 3 27
295 13 18
417 14 28
53 8 1
490 4 11
65 3 17
155 1 2
178 1 21
45 15 27
237 11 7
82 15 6
439 12 7
69 7 7
455 10 8
8 9 24
460 6 11
428 8 16
23 11 12
221 7 27
346 6 1
405 13 22
450 0 27
426 16 27
156 4 24
19 9 5
277 12 9
403 15 25
464 1 14
138 10 18
342 12 11
428 13 19
491 9 16
451 1 22
268 15 2
73 15 22
401 12 6
0 0 8
97 3 1
135 13 14
498 2 8
86 2 23
102 5 12
103 11 21
162 5 9
499 11 2
441 4 23
142 12 24
18 1 23
145 3 24
449 1 22
244 7 0
417 7 22
253 3 28
473 15 25
304 7 7
481 7 24
1 1 5
297 2 0
488 3 27
41 14 12
485 0 10
312 14 1
424 4 18
460 12 28
123 4 3
235 16 24
331 5 9
439 12 7
171 16 10
271 7 14
347 10 9
18 7 24
181 3 26
275 15 18
450 4 1
155 10 23
347 4 6
68 9 7
462 6 22
324 3 2
303 11 1
197 8 25
282 6 1
259 6 16
71 0 13
61 0 0
105 7 3
61 12 18
489 16 19
430 5 2
4 15 17
15 15 8
40 13 16
26 7 25
380 8 25
107 16 25
185 12 11
464 3 12
431 8 24
330 12 17
364 16 26
450 2 7
372 7 23
6 6 26
10 16 13
291 7 24
312 10 21
489 15 15
0 2 9
370 6 17
277 11 8
208 11 28
137 5 4
381 11 21
31 7 5
164 11 7
334 1 4
236 3 19
431 2 25
103 15 24
337 15 17
183 1 4
220 14 18
212 2 18
428 3 20
303 5 3
251 1 9
329 14 8
172 14 20
165 5 19
278 11 24
246 0 1
418 6 4
65 3 2
80 2 20
360 8 19
351 6 21
379 12 21
288 16 3
493 2 6
70 9 6
204 16 26
436 3 1
383 3 10
234 1 22
61 14 15
352 4 19
433 1 3
491 0 25
88 0 18
169 10 5
448 16 20
1 10 28
259 15 16
320 16 10
217 0 25
499 15 18
285 7 2
29 2 24
404 12 15
473 13 19
496 10 20
439 10 27
366 1 22
146 8 0
117 5 11
129 7 5
111 13 27
87 6 1
464 12 23
396 8 6
255 14 12
397 1 6
245 11 5
325 16 21
446 8 10
32 9 3
241 10 21
270 5 0
373 3 22
472 4 7
280 12 9
0 11 6
69 3 4
40 12 0
54 9 12
401 6 28
369 9 9
333 14 15
431 1 1
246 0 7
495 15 26
327 15 14
60 11 26
147 13 28
376 6 13
340 7 8
179 13 0
467 14 26
425 7 7
202 15 23
164 5 8
62 12 22
119 1 21
49 9 24
488 1 14
372 6 24
374 14 2
323 12 25
371 3 4
475 8 27
300 13 7
180 15 23
44 3 15
389 3 18
72 7 19
111 16 26
161 7 18
474 5 7
268 5 4
235 2 25
22 12 9
473 11 11
148 8 27
324 5 0
403 10 25
297 4 28
472 8 28
267 16 18
393 11 8
330 16 28
98 2 19
280 15 16
297 2 5
132 2 3
189 7 14
317 15 1
251 0 26
41 2 27
30 9 26
247 2 12
347 1 21
320 9 10
37 13 1
497 0 23
183 3 20
93 14 12
194 9 14
477 2 26
368 2 23
464 3 20
271 10 13
234 4 13
161 15 5
320 5 0
290 5 8
407 10 16
19 16 15
449 13 7
356 1 23
172 10 15
471 13 3
246 1 25
60 12 26
8 7 25
371 0 9
362 7 12
325 4 28
222 9 0
169 7 12
337 9 13
158 11 9
297 14 19
10 6 24
320 12 10
416 2 26
280 2 10
69 16 19
158 2 5
308 15 12
499 15 11
158 1 11
211 8 16
492 1 7
91 15 13
269 9 0
435 7 22
233 3 21
370 13 2
346 13 0
328 12 7
238 15 17
275 12 5
198 8 27
28 9 20
374 9 13
175 8 11
94 10 6
424 7 15
146 4 11
10 0 10
199 9 6
303 1 24
386 2 26
319 8 3
144 9 27
159 0 6
277 13 1
362 14 12
146 10 25
418 10 24
418 4 25
142 1 24
210 12 14
468 14 21
303 3 11
287 0 9
88 12 4
7 2 10
170 10 7
359 6 4
267 8 23
322 1 17
335 11 17
274 6 23
425 16 17
281 9 23
235 1 7
169 1 24
366 10 4
403 3 27
27 14 22
153 3 26
118 13 11
22 11 14
223 10 13
9 0 22
482 8 26
181 15 14
465 14 3
56 5 22
427 15 6
497 11 25
160 8 0
470 7 21
398 6 4
403 1 25
335 13 17
36 14 24
180 10 27
263 14 10
177 0 25
371 10 24
113 0 15
484 8 6
375 5 9
343 8 9
78 2 17
398 0 5
473 5 28
483 4 1
283 8 7
299 13 25
104 0 2
351 3 26
25 11 0
116 12 20
63 12 23
415 2 10
200 11 22
395 12 26
336 9 1
147 10 1
496 5 5
307 7 3
305 0 16
152 12 20
290 5 28
98 3 9
476 6 16
274 15 4
427 11 23
470 4 9
215 10 23
255 0 24
156 12 6
28 3 3
90 14 19
132 12 13
148 9 24
62 0 3
48 8 0
209 0 27
138 14 9
25 7 8
267 5 4
29 6 25
336 0 8
246 15 22
180 13 0
435 16 2
420 14 26
475 4 10
253 1 8
399 6 19
7 16 19
50 3 27
256 7 25
455 14 12
152 16 15
48 2 2
371 2 23
166 0 21
34 9 3
431 10 23
124 7 13
210 13 11
116 7 1
337 4 17
223 3 0
268 6 24
202 7 23
242 5 14
54 2 7
41 8 12
418 3 28
410 11 22
167 14 21
341 7 20
291 15 9
110 6 28
234 0 8
322 1 20
209 5 26
258 0 27
86 14 15
54 4 26
184 13 5
218 14 3
47 12 0
249 9 19
442 6 0
162 4 25
425 10 22
101 1 9
22 2 7
493 8 6
130 5 7
288 7 11
159 7 15
455 2 3
22 10 2
354 10 25
374 12 13
201 11 14
219 2 8
275 13 16
305 0 17
194 14 21
211 5 14
164 3 17
446 7 9
449 11 12
266 8 26
178 12 17
80 16 19
246 2 1
212 2 28
327 8 24
323 5 21
89 7 26
346 3 18
8 12 7
317 14 11
265 15 5
298 1 22
198 8 3
236 8 20
37 13 0
341 1 25
394 4 6
394 6 12
89 1 11
245 3 26
471 7 25
368 3 9
487 12 27
401 12 11
310 15 15
177 10 9
35 14 4
65 16 25
105 16 2
181 1 12
39 11 10
200 1 9
456 8 23
490 14 8
105 7 5
19 9 5
412 3 11
288 13 22
233 11 28
456 8 0
302 3 2
126 7 14
95 8 3
410 6 0
301 13 13
340 14 25
487 14 15
246 2 3
281 14 24
377 9 22
113 15 8
156 4 1
176 8 25
459 3 11
438 16 26
94 8 11
143 0 14
106 7 1
1 5 22
151 12 10
496 2 28
196 8 25
198 11 23
343 7 5
464 9 22
343 11 7
163 5 1
400 9 2
479 1 8
14 3 9
8 5 14
310 10 3
309 15 5
415 4 24
303 12 15
438 15 17
478 14 4
317 12 7
304 8 3
221 14 24
57 7 26
109 9 24
64 2 24
29 2 11
2 4 24
494 12 5
182 13 2
422 4 24
376 5 20
362 13 12
77 6 3
151 16 4
395 6 14
9 7 25
282 5 24
384 1 4
357 11 19
487 9 4
415 14 18
257 15 0
175 14 4
8 5 28
61 16 1
475 13 15
303 10 17
425 6 20
455 7 0
316 10 15
29 11 9
472 12 8
488 14 2
19 8 4
180 11 15
35 7 4
141 16 12
144 4 5
458 15 12
388 11 22
137 8 15
145 3 25
211 14 17
408 14 25
160 0 6
4 12 15
87 12 4
459 16 19
186 13 13
397 6 5
145 16 4
216 0 28
19 11 0
499 3 20
122 13 11
345 7 20
327 1 21
149 12 13
164 5 15
93 12 5
32 7 21
238 0 20
475 11 11
430 13 14
79 5 17
282 0 6
458 14 12
48 13 17
211 0 13
289 3 3
31 8 8
127 8 19
6 3 21
152 16 8
452 13 15
403 15 19
63 8 1
405 10 15
84 6 21
208 4 14
343 7 18
337 9 6
189 4 15
268 2 26
296 3 16
43 5 6
421 0 5
172 11 3
33 1 28
166 4 23
370 16 3
50 3 3
427 14 21
155 5 25
68 7 2
136 15 10
156 16 25
30 4 11
54 11 27
484 9 6
301 14 18
261 7 7
184 12 23
267 5 28
285 1 22
467 6 15
3 6 2
201 1 20
12 4 2
310 13 4
125 14 14
235 13 18
229 2 7
41 9 14
199 13 17
329 6 11
232 6 24
315 2 4
148 8 18
205 13 8
191 2 24
491 12 2
3 6 21
124 14 1
449 15 17
273 4 20
283 15 13
356 7 11
337 16 1
168 16 5
480 7 27
124 2 11
106 7 26
363 12 1
357 3 4
436 1 7
258 0 0
247 9 19
373 12 24
352 9 22
147 13 17
430 16 6
175 16 25
341 3 9
353 4 6
231 4 7
241 4 24
28 11 6
478 15 17
248 9 10
355 13 18
231 6 24
106 9 19
222 12 11
246 10 21
335 6 12
320 16 21
60 16 23
324 3 28
175 14 5
278 1 5
483 8 4
100 13 25
197 10 21
480 8 9
408 13 9
465 1 12
331 7 19
498 16 10
282 1 12
168 2 12
100 5 8
22 13 17
236 7 14
424 11 20
147 4 26
269 4 8
11 4 28
228 16 7
440 5 11
347 15 21
281 10 3
72 6 25
107 8 24
370 4 9
88 3 15
381 10 17
403 11 8
176 7 6
239 8 15
121 13 11
0 14 6
175 6 11
146 5 2
130 2 24
375 2 2
447 5 6
214 6 8
401 8 14
218 10 22
366 9 4
494 13 5
100 13 19
387 8 17
106 0 20
456 4 18
292 6 3
93 1 19
65 5 8
367 2 6
428 12 11
86 2 3
317 7 14
365 8 2
304 7 27
262 2 26
364 4 5
455 7 28
297 5 25
240 7 17
68 0 22
292 2 8
329 5 20
56 3 3
263 6 17
210 9 26
138 3 12
276 10 19
191 16 2
111 8 18
35 4 2
436 9 20
13 7 5
437 14 26
480 16 9
348 16 19
281 8 9
74 12 4
422 9 18
443 14 26
373 12 27
169 2 21
458 14 12
430 9 27
31 16 3
454 5 11
35 15 5
192 15 7
259 5 27
318 16 21
479 13 4
453 6 0
460 7 26
459 16 8
333 13 9
391 2 13
316 14 22
110 1 18
43 6 23
463 5 23
60 0 18
432 1 9
212 15 21
392 2 5
380 3 21
299 13 7
221 14 10
312 13 10
344 3 13
336 1 14
185 2 1
276 16 1
359 7 25
169 7 9
289 1 2
384 2 20
294 11 7
15 5 12
223 8 22
466 0 13
14 3 26
307 11 16
17 16 3
348 2 26
230 11 22
237 10 18
241 5 0
371 16 23
147 1 24
165 14 14
115 7 23
446 14 7
69 12 22
20 2 23
254 15 23
65 10 8
195 4 14
402 6 14
338 12 20
308 12 4
4 8 28
241 13 28
180 2 13
497 3 11
233 9 21
2 0 2
242 14 20
304 3 12
77 7 19
17 16 2
303 11 23
222 10 22
378 9 21
183 15 23
101 16 17
422 7 15
171 11 6
381 3 10
389 8 22
184 0 23
109 13 18
77 7 21
477 12 21
176 8 27
395 16 18
228 14 23
460 3 13
4 2 22
477 14 17
197 14 16
447 15 13
56 11 11
387 11 8
49 3 22
231 0 11
326 5 9
239 11 3
186 12 1
490 0 5
493 5 13
15 11 7
441 9 17
189 11 2
170 5 23
389 13 15
342 3 12
24 13 11
370 13 23
490 11 26
404 9 10
339 0 0
337 2 3
92 15 28
430 5 25
101 2 17
55 14 2
379 5 14
413 7 16
107 13 21
328 9 23
32 3 20
273 11 0
266 11 22
473 7 6
31 3 17
277 0 28
389 5 17
307 6 6
165 13 16
122 1 17
57 14 28
195 10 10
405 8 7
275 11 17
268 10 9
88 9 24
373 6 25
311 7 3
178 8 13
80 10 13
307 0 1
77 16 11
382 16 12
158 3 9
26 16 17
191 13 14
314 0 24
427 15 3
26 15 27
442 3 18
445 5 15
225 6 2
458 7 23
347 10 1
114 7 24
170 13 12
389 14 22
200 11 18
430 0 6
303 11 14
335 4 16
93 11 3
320 5 4
105 9 1
211 11 0
15 14 2
407 2 1
326 8 15
446 9 24
250 14 2
59 2 23
139 8 28
156 3 19
429 5 5
33 8 2
296 5 3
382 12 7
210 0 11
292 4 16
81 4 23
6 10 18
189 8 28
204 2 13
455 14 25
138 7 14
272 14 15
412 6 28
457 5 19
327 5 13
350 1 16
360 3 19
497 11 16
113 15 15
265 11 4
5 14 10
359 4 18
58 10 3
162 13 14
446 14 16
304 15 4
12 9 27
453 0 7
264 14 15
326 14 18
488 13 12
247 1 8
33 5 8
220 13 5
166 6 17
220 14 10
64 5 13
252 15 5
152 15 15
37 11 28
88 7 2
349 14 25
249 3 19
32 14 26
183 16 15
334 13 10
127 9 25
17 12 15
407 6 22
393 16 26
401 14 24
188 4 12
192 4 21
40 2 13
238 5 9
230 3 17
205 1 1
11 5 13
267 5 1
347 14 5
492 12 22
116 0 13
165 10 21
73 7 5
352 1 21
217 1 6
428 9 7
336 2 14
9 1 23
122 3 15
463 13 22
375 7 10
279 3 20
307 16 11
252 7 23
245 7 9
51 8 28
2 12 17
484 11 2
250 14 6
31 2 17
316 7 26
142 10 26
293 6 23
312 0 4
177 1 7
204 8 18
235 14 18
478 15 15
8 16 21
192 16 17
489 7 3
41 15 23
180 6 5
463 7 20
211 16 5
185 16 14
397 0 26
253 3 22
57 8 28
359 16 9
316 1 9
99 1 19
101 3 8
436 1 14
298 10 4
401 12 21
161 12 15
241 7 25
351 12 9
5 14 20
355 0 5
413 9 17
408 3 1
316 2 0
396 13 8
148 2 26
242 7 25
76 6 6
205 11 4
36 1 24
426 14 20
60 3 14
71 8 24
314 8 26
384 3 12
73 6 2
220 14 16
454 5 25
190 7 28
266 13 20
263 5 1
197 16 15
404 14 12
387 3 22
121 13 7
193 10 12
364 13 14
238 11 23
163 2 28
82 1 22
472 5 6
215 7 5
395 9 25
465 14 14
136 8 25
444 12 11
194 1 27
332 16 28
155 0 16
137 0 14
175 11 4
129 5 17
465 8 20
432 14 27
419 12 24
313 11 15
290 11 13
101 10 12
418 16 12
307 12 16
346 7 6
133 16 15
219 16 6
458 9 10
404 5 25
316 1 24
349 15 5
162 16 10
116 3 6
92 12 24
267 9 19
0 15 12
149 16 21
51 16 18
192 5 16
323 7 12
284 14 23
85 3 7
267 12 2
350 10 26
279 2 21
333 15 1
187 14 27
481 15 9
397 4 16
157 7 22
489 7 6
143 10 2
154 0 11
66 7 26
381 10 24
121 0 16
435 7 10
57 0 20
72 6 1
428 11 9
277 12 0
41 7 22
204 7 12
430 3 25
236 6 18
84 3 28
122 16 8
27 5 15
360 0 3
362 1 25
325 10 14
351 1 23
457 14 11
337 9 22
79 16 3
40 8 21
424 8 3
275 6 18
290 6 10
292 0 8
64 4 16
376 10 4
371 2 22
10 7 5
428 6 0
400 6 13
441 13 20
495 7 6
346 15 3
281 7 16
351 10 7
245 15 18
430 12 14
379 9 21
117 3 18
63 0 15
474 6 16
122 4 0
10 14 5
296 13 0
281 16 8
416 8 10
132 9 23
138 15 9
82 7 4
338 5 1
475 14 17
90 10 5
345 3 20
238 4 8
43 6 14
241 10 18
377 3 18
17 12 23
289 11 25
222 7 13
260 15 0
452 15 19
191 1 23
258 5 4
291 10 10
86 2 13
468 5 22
397 3 28
216 9 3
312 6 2
24 4 26
101 1 17
154 1 11
404 0 0
344 0 9
38 12 21
281 0 1
390 3 9
208 11 14
2 1 3
403 11 19
263 7 3
184 4 5
40 9 13
242 16 21
161 0 5
12 3 26
481 4 11
319 8 1
297 0 22
98 3 16
187 13 17
491 9 21
482 14 24
478 9 24
466 5 10
302 7 25
294 8 21
219 3 15
226 1 19
432 12 0
486 9 11
369 11 22
62 9 5
168 0 28
417 9 16
172 9 9
89 11 20
425 9 25
379 3 20
405 1 12
484 4 16
487 14 13
328 1 2
319 1 22
281 5 13
260 14 21
148 15 22
270 3 14
145 7 8
442 6 21
222 13 20
287 4 15
418 13 11
160 7 10
166 0 1
410 14 13
399 7 5
228 9 12
264 4 16
282 8 20
425 11 15
321 6 18
211 3 11
106 9 1
440 10 7
478 7 20
437 10 22
174 14 12
387 0 0
474 11 2
390 11 3
334 10 11
354 3 11
221 8 3
287 0 24
372 12 7
57 7 16
489 5 14
465 11 18
398 13 18
339 6 28
369 10 2
87 0 15
478 12 1
26 9 21
1 7 21
93 8 28
351 6 1
66 13 7
243 5 26
396 8 6
218 10 18
37 8 2
72 16 18
462 4 0
195 3 1
205 16 18
118 5 14
28 1 3
163 11 14
468 6 23
385 12 19
343 0 25
365 8 2
110 0 19
311 3 6
435 4 10
223 11 22
463 0 21
466 7 1
44 12 16
486 8 28
148 0 26
294 12 28
478 12 23
423 11 4
225 7 16
441 7 16
266 7 0
423 14 1
200 16 15
337 4 4
126 11 22
470 7 20
458 10 8
317 7 26
376 3 13
103 14 10
306 5 26
190 5 20
46 10 15
84 1 2
472 4 10
307 11 13
75 12 0
121 10 0
472 0 22
285 16 11
103 4 14
130 2 18
445 11 17
172 10 20
479 3 17
130 15 18
132 0 10
479 2 24
268 12 12
12 11 11
330 12 25
104 6 9
104 2 10
7 12 20
263 10 9
324 1 0
434 13 11
365 0 14
434 10 22
137 3 20
257 3 3
307 15 2
166 0 15
369 13 9
133 11 13
17 9 11
142 1 27
88 12 1
336 6 6
489 8 21
392 15 11
490 15 7
163 14 2
236 3 4
301 7 7
33 12 1
31 13 27
436 12 3
327 0 12
259 11 19
119 14 23
262 8 0
259 11 22
310 0 4
437 0 23
241 1 3
442 13 8
336 14 11
334 0 3
112 16 21
66 11 21
55 3 12
70 0 14
290 15 18
186 3 22
398 13 22
221 14 20
171 13 4
320 9 27
270 15 21
288 12 28
110 2 14
44 8 17
94 3 13
26 5 26
68 11 26
180 0 12
422 2 26
122 14 0
16 11 8
249 2 2
37 0 24
484 12 21
328 6 26
30 10 14
73 3 2
12 11 25
21 6 11
152 11 9
326 10 5
382 3 28
303 15 7
302 6 27
40 11 24
446 2 11
43 4 24
242 11 21
91 1 1
32 6 17
391 14 26
449 3 25
89 3 19
10 11 11
384 3 16
331 16 22
84 7 18
142 3 21
34 5 16
83 8 12
155 10 12
341 6 13
490 10 12
387 9 1
289 10 11
102 13 15
494 11 18
264 15 7
103 9 24
488 13 23
0 15 11
33 14 22
67 12 7
172 3 26
413 2 3
445 14 20
9 8 26
179 10 22
67 11 26
188 3 9
334 2 17
75 8 27
154 2 20
77 8 7
478 9 20
493 5 9
467 14 2
382 11 17
271 6 14
499 10 6
425 11 27
364 8 5
496 7 28
438 0 2
487 7 5
209 15 27
59 7 22
5 9 27
179 5 8
182 13 10
305 14 27
439 4 16
89 5 0
452 2 5
152 14 17
338 10 24
300 15 10
149 13 28
320 12 26
229 1 24
368 14 13
355 3 10
81 2 12
151 5 27
70 5 8
350 3 21
65 14 14
143 13 8
276 14 2
52 6 2
281 13 19
126 14 0
415 1 0
226 3 2
151 5 5
329 0 26
142 1 18
156 14 5
461 5 0
10 6 4
433 5 20
107 12 8
279 10 17
353 2 22
458 16 27
3 10 16
496 10 4
52 4 18
204 3 9
417 5 7
279 3 10
216 16 28
461 8 14
48 13 10
357 0 0
347 15 6
381 9 0
18 14 28
172 16 12
280 6 16
484 9 12
424 0 18
64 15 25
89 13 21
62 12 24
224 6 5
274 6 27
95 6 5
100 11 5
151 11 0
182 13 17
226 5 23
441 4 10
465 1 15
322 8 26
132 8 23
34 13 22
7 9 4
333 2 23
26 6 3
249 16 12
107 3 16
138 16 2
429 4 21
368 8 11
52 16 21
258 4 12
42 2 28
463 2 27
431 0 22
319 12 19
139 10 1
22 16 27
306 12 25
390 0 24
495 10 26
304 12 19
267 2 3
464 4 13
477 10 9
12 5 20
88 8 15
476 15 17
50 10 28
20 15 8
281 3 17
423 0 19
91 10 19
2 2 28
11 9 15
218 7 18
9 10 2
442 13 5
427 10 17
91 11 2
318 9 26
122 14 27
126 8 23
450 3 6
401 13 21
323 13 19
42 8 0
219 15 4
366 2 12
78 9 8
233 1 24
348 11 9
488 14 2
465 13 26
113 3 1
263 16 4
385 15 0
38 4 12
342 2 17
171 10 14
168 2 8
119 5 7
185 8 5
270 11 11
461 16 3
304 2 28
287 8 18
24 0 15
292 16 7
169 4 10
436 4 17
281 5 21
498 2 14
259 7 8
6 13 16
168 14 11
381 9 15
102 9 15
404 14 17
280 2 16
24 10 1
98 7 2
468 13 25
349 8 1
253 7 18
250 11 1
372 13 22
162 1 20
391 1 1
345 13 26
261 4 0
162 9 13
55 14 20
320 16 17
404 6 0
244 15 13
385 2 18
142 8 0
336 8 20
448 6 16
204 13 9
205 11 21
45 6 10
295 6 16
247 16 20
326 7 0
405 2 27
220 14 16
226 16 25
75 13 13
173 12 17
108 2 11
89 15 28
289 3 22
498 13 18
121 9 21
12 14 1
247 15 22
7 12 18
95 9 3
229 12 14
108 4 5
172 4 7
415 15 28
476 7 19
338 11 9
271 5 26
422 1 28
423 12 11
472 4 8
385 16 10
4 5 22
111 0 26
203 3 9
18 12 8
164 14 13
9 8 26
378 16 2
14 10 19
481 9 24
469 9 20
148 2 0
106 15 1
1 9 25
452 2 27
111 2 21
38 7 3
217 14 7
29 12 19
427 12 24
331 2 15
442 14 18
301 14 17
10 2 20
379 3 22
469 12 5
482 11 4
22 8 3
218 12 20
76 10 22
46 12 5
12 5 24
387 9 14
28 13 3
422 12 17
201 15 6
468 9 8
366 1 15
390 0 21
475 5 23
497 15 7
400 2 21
434 10 11
359 12 13
60 1 4
455 16 0
416 7 13
284 2 6
31 4 18
7 13 9
104 4 23
144 7 6
8 16 0
26 12 20
169 5 23
242 0 4
159 1 22
429 13 20
418 16 14
351 15 7
279 2 11
175 11 14
141 16 18
236 0 17
21 2 9
178 0 20
81 9 27
118 9 20
362 11 28
323 16 4
162 6 28
188 13 26
498 10 4
494 7 13
233 7 22
383 14 17
497 15 4
160 13 15
201 1 19
287 9 9
143 1 25
181 15 23
78 16 21
134 15 0
57 5 4
119 10 4
63 8 22
2 7 23
270 9 9
474 5 18
414 15 14
441 10 18
91 16 0
380 11 15
7 12 0
374 5 13
195 0 12
428 7 18
74 8 13
258 13 5
17 6 12
403 12 0
260 16 17
94 13 15
136 1 14
349 13 18
266 1 5
22 2 27
477 3 11
2 11 28
437 9 11
355 5 4
270 15 23
253 15 14
330 13 19
18 0 11
344 2 17
437 4 28
374 6 10
497 1 4
443 2 7
351 10 18
391 12 12
37 12 24
390 12 20
50 12 1
360 2 7
418 12 2
40 8 20
75 8 26
424 14 16
308 2 5
101 8 11
420 4 28
283 15 25
278 12 6
6 6 11
125 9 10
223 11 9
216 11 19
164 12 8
61 15 18
173 7 8
482 1 17
33 2 21
53 13 7
279 16 22
297 6 22
91 12 17
140 15 13
158 12 17
441 12 5
388 15 7
379 5 25
58 10 1
18 11 3
15 16 17
238 0 28
328 12 1
113 5 3
416 7 11
238 2 20
195 6 20
334 15 11
136 6 2
132 11 7
494 0 4
334 4 23
182 4 19
49 10 10
84 1 12
34 12 15
322 2 8
113 16 17
367 7 16
419 15 13
279 5 7
233 10 27
382 5 6
356 9 18
367 15 27
335 3 6
137 13 23
55 4 8
291 16 27
447 0 28
415 13 15
396 3 7
407 3 1
195 10 0
453 0 22
465 13 2
410 12 0
352 4 2
489 5 5
290 3 18
494 13 11
244 11 7
320 12 3
361 0 18
211 8 0
421 8 22
117 1 4
181 16 27
318 6 28
131 2 19
396 7 6
175 9 12
82 5 11
267 13 11
137 13 1
463 12 17
96 0 1
72 5 1
193 10 12
70 9 3
312 0 17
12 15 6
247 2 14
317 6 23
109 16 10
362 11 17
191 10 14
238 6 10
333 10 12
175 2 5
447 2 9
9 0 25
398 1 22
404 5 21
353 16 15
470 10 11
119 6 28
108 10 9
379 6 17
491 7 28
120 2 28
280 13 12
47 8 27
17 5 4
244 6 11
447 15 15
78 16 8
270 1 14
53 15 26
350 15 0
376 13 3
224 10 26
92 10 12
104 16 7
133 11 1
57 10 24
263 14 28
381 2 28
415 7 1
452 16 6
225 11 25
286 2 5
249 12 12
208 2 6
424 4 6
207 4 19
349 7 12
276 15 4
409 0 26
51 15 6
215 10 10
436 6 9
297 5 1
423 1 6
23 12 3
469 0 2
293 12 26
386 11 8
280 12 28
309 10 5
363 0 1
110 15 15
398 9 22
261 9 2
246 16 12
322 12 8
439 1 20
28 11 5
114 5 11
85 0 3
408 8 24
385 15 26
352 11 26
83 14 6
115 8 18
488 3 27
497 11 8
193 7 8
226 9 1
404 12 10
59 7 27
259 2 5
262 4 11
116 7 10
19 11 27
118 4 6
442 6 24
315 2 18
480 3 24
17 0 15
358 4 0
496 1 23
5 3 17
240 15 6
136 13 12
435 9 17
364 2 14
337 8 2
318 1 13
272 8 7
10 2 7
6 4 22
368 13 3
75 4 12
206 10 9
284 2 14
303 1 5
330 11 10
398 2 6
346 7 2
68 2 23
486 1 25
23 3 4
313 13 13
444 10 5
266 10 1
61 2 17
117 7 7
333 16 25
94 13 0
289 10 15
95 2 6
464 4 9
132 1 16
306 16 8
72 13 27
130 1 12
7 12 22
17 16 7
388 6 25
215 3 22
466 10 1
399 13 3
367 11 13
410 10 22
315 8 23
5 15 11
428 16 5
110 10 4
101 13 2
255 2 20
99 1 24
124 16 10
162 16 27
234 13 9
361 14 24
473 16 20
253 4 0
294 8 26
369 13 1
141 16 21
104 7 11
425 3 15
192 7 8
290 13 20
397 1 21
449 1 10
385 0 24
84 8 5
245 9 8
248 16 6
285 1 13
362 16 15
419 10 9
331 15 24
91 2 14
60 6 11
157 14 24
195 0 16
375 9 14
372 9 19
49 12 20
51 11 2
325 14 17
304 1 14
80 8 7
100 7 3
124 4 15
354 8 8
78 15 14
196 11 26
15 5 27
227 3 18
403 5 25
322 7 23
205 7 21
68 4 0
357 5 25
465 2 21
402 7 11
368 15 12
428 4 6
80 9 20
410 1 3
283 11 2
72 10 11
457 3 4
292 7 26
258 10 7
412 16 8
449 14 20
303 5 19
466 14 19
305 5 2
118 2 7
347 7 20
184 8 8
395 13 22
6 1 2
395 8 11
377 4 21
374 9 13
343 9 21
397 0 4
362 8 12
303 4 9
140 0 18
346 15 15
67 8 28
459 16 16
238 1 23
292 6 6
14 13 1
338 7 0
10 13 26
213 6 17
288 8 7
0 16 5
30 4 0
284 5 14
361 0 10
147 3 23
163 8 0
214 16 27
306 12 6
382 7 4
140 8 21
431 5 18
5 12 28
270 3 27
313 8 13
33 14 21
123 2 11
407 8 11
415 1 17
46 15 18
233 13 22
375 8 18
267 15 15
152 14 19
96 12 9
34 15 17
4 5 18
169 9 10
220 4 3
268 10 17
13 10 21
215 15 8
476 11 8
410 5 11
404 13 11
71 7 25
136 5 13
187 7 26
464 6 28
426 3 16
346 13 6
179 10 28
155 3 15
288 1 9
170 14 28
377 16 16
359 2 13
470 3 9
461 16 27
76 5 15
191 2 20
193 15 2
443 4 26
451 0 13
315 7 13
477 6 5
3 9 19
294 14 25
349 15 23
93 3 27
345 15 27
19 6 5
40 9 2
9 3 28
238 3 25
142 13 7
37 8 9
356 7 11
268 10 26
116 1 0
204 1 12
80 2 22
78 3 16
474 4 24
50 6 9
75 16 23
246 13 27
396 10 25
459 5 0
207 3 15
51 7 17
412 16 19
53 11 13
262 14 1
5 3 26
116 5 14
124 2 20
497 16 1
177 16 19
337 8 13
212 6 14
67 16 15
415 4 0
398 7 12
20 1 16
256 8 0
252 15 6
169 12 18
484 16 27
36 16 4
353 15 24
275 4 11
459 8 15
137 16 27
34 5 2
430 11 1
64 7 8
396 11 14
467 15 22
11 8 12
404 1 28
318 4 5
339 3 0
79 13 7
486 11 6
374 9 19
350 16 14
215 7 4
262 12 22
208 2 11
43 6 25
139 2 16
384 11 12
43 1 23
120 4 1
221 9 10
355 5 17
188 12 7
485 11 27
98 12 2
407 1 13
204 9 1
403 7 2
262 8 8
36 14 22
378 2 8
285 0 16
92 15 4
288 7 7
297 4 0
228 5 13
420 5 5
461 3 26
444 5 20
64 12 7
376 4 13
73 2 16
343 13 1
320 3 0
352 1 25
20 5 16
427 11 5
66 8 23
64 2 13
5 6 28
415 16 24
311 10 26
312 11 12
429 4 15
108 10 3
193 2 1
166 14 23
65 7 5
148 11 19
343 10 4
436 0 22
465 10 27
405 4 5
441 9 22
388 14 23
164 16 17
272 4 6
88 12 8
322 11 17
374 4 9
298 3 27
251 6 25
230 5 0
1 16 0
179 6 26
174 9 18
387 7 28
419 3 11
289 10 17
252 10 26
356 8 19
70 8 1
24 13 25
7 9 22
1 11 12
97 10 14
389 6 12
421 15 3
245 8 17
321 14 14
351 13 14
12 15 7
409 10 24
5 6 6
139 4 27
152 7 11
129 4 23
487 0 7
259 12 9
274 9 20
430 4 10
365 9 15
163 6 8
215 8 25
207 5 7
60 4 6
90 15 23
82 14 4
439 5 16
204 16 20
252 2 18
143 3 19
142 1 22
422 12 3
156 0 14
388 1 25
129 9 17
194 12 11
473 3 18
6 7 4
339 3 27
138 2 23
492 6 19
164 0 9
56 10 9
139 3 1
322 2 26
104 13 2
9 11 2
402 3 21
141 1 21
171 12 10
461 16 18
130 3 16
393 16 20
60 2 20
0 13 8
137 0 28
476 1 2
130 1 3
384 1 21
349 8 13
92 10 13
322 3 12
431 10 16
258 1 7
42 8 14
300 12 23
42 7 14
30 16 1
375 13 20
69 2 14
86 1 26
83 16 19
443 12 4
467 13 27
4 15 0
79 4 7
16 1 13
25 15 13
103 8 19
406 11 4
248 5 5
334 16 4
142 9 28
344 1 13
410 14 17
179 8 8
439 10 21
226 3 1
433 7 22
317 6 21
356 13 12
53 14 25
408 10 5
411 0 15
118 12 25
127 2 3
359 12 27
251 11 6
95 8 3
394 4 1
179 9 28
24 3 2
255 6 7
322 2 18
276 3 18
2 1 15
144 1 15
262 1 27
104 10 28
181 11 2
372 16 24
348 16 6
353 11 16
478 9 3
204 1 10
157 14 26
210 10 25
254 6 27
485 0 26
417 16 9
253 8 21
57 0 28
247 15 14
241 7 13
117 0 27
70 5 7
476 13 23
427 1 26
229 7 5
417 15 1
150 0 25
47 6 24
37 13 14
72 13 8
248 13 10
124 9 13
253 0 16
264 0 1
120 3 12
352 8 17
290 6 25
378 3 12
158 1 26
428 4 4
176 1 5
483 5 16
391 10 1
196 14 16
355 8 1
257 12 15
232 10 23
407 5 23
424 14 17
179 6 13
206 10 20
65 15 2
457 14 26
0 4 23
167 16 14
409 8 13
219 0 25
133 13 12
78 4 15
232 15 20
176 4 20
204 15 23
102 4 7
359 0 24
335 7 7
164 13 7
337 14 4
240 6 28
96 3 15
460 0 28
184 13 11
199 3 24
382 13 13
395 16 27
452 3 23
64 3 24
482 7 3
448 4 9
407 4 28
490 6 15
128 15 19
423 0 14
142 9 18
406 3 27
486 3 6
439 6 12
229 5 7
177 8 3
341 3 23
402 9 20
257 11 7
163 0 20
388 9 16
200 9 28
484 2 17
0 5 18
177 10 18
26 13 17
455 5 0
44 3 5
366 2 10
310 3 5
60 12 26
62 15 20
82 7 6
421 10 27
143 0 19
342 16 0
294 2 15
376 9 28
368 4 19
65 4 18
242 0 4
445 10 3
219 0 23
368 8 17
84 9 2
165 9 7
88 11 16
185 14 24
54 3 6
388 16 10
74 12 16
36 15 21
41 16 17
129 7 12
196 0 20
118 5 22
129 12 14
86 8 6
393 8 7
107 7 20
263 8 25
350 0 10
276 7 7
274 0 19
330 5 12
435 3 12
230 6 6
87 12 3
68 16 8
380 1 21
110 0 22
130 0 8
340 9 26
316 0 3
360 14 19
284 3 25
449 8 19
495 1 10
50 13 0
237 12 6
260 10 12
423 6 4
421 16 11
20 4 18
68 8 24
349 6 9
171 15 14
389 16 7
237 13 12
498 10 27
330 10 26
499 15 7
272 13 14
43 4 25
205 4 9
441 14 11
128 0 12
473 2 14
486 11 9
331 16 3
147 0 27
88 6 4
257 9 21
286 13 23
190 15 18
19 1 27
248 9 14
212 1 28
101 15 7
285 10 24
306 2 9
492 12 8
308 10 4
499 15 0
202 1 4
262 13 26
476 13 22
7 14 8
476 1 17
90 0 3
242 15 18
326 14 9
200 13 0
18 12 28
198 9 19
388 16 0
102 7 5
20 16 0
421 11 20
236 9 12
190 4 6
85 16 21
449 2 16
415 10 10
68 16 23
235 13 14
256 3 21
453 1 20
320 1 13
437 0 11
379 12 0
430 4 18
428 2 11
458 2 23
491 12 9
274 5 3
324 13 13
384 13 28
341 4 15
39 7 9
311 2 5
98 9 15
80 0 8
52 2 18
195 9 13
187 4 8
165 12 27
426 12 27
108 16 1
322 12 6
101 12 4
88 5 21
132 12 18
334 10 15
460 11 19
67 16 25
432 15 21
281 2 25
197 13 12
428 1 7
273 0 19
471 6 27
443 4 7
364 8 21
370 14 7
496 12 0
49 16 4
70 14 21
206 14 15
486 6 2
308 16 17
170 8 0
8 0 4
393 6 20
384 0 3
69 10 23
266 16 0
256 1 26
118 7 22
234 8 26
244 11 7
8 12 10
5 4 24
59 12 1
107 9 16
43 12 26
235 16 9
40 10 19
375 1 28
330 16 12
367 12 20
173 10 5
61 9 2
53 9 25
274 15 5
60 2 2
472 7 0
317 11 22
166 13 2
373 8 14
273 2 23
145 8 7
95 11 2
415 4 8
33 1 0
57 7 27
479 15 23
185 7 15
122 13 10
201 3 27
324 14 21
431 8 1
415 4 8
90 5 8
415 10 2
341 15 10
420 8 14
149 13 3
402 13 4
116 7 6
52 13 17
388 9 20
315 4 6
326 2 21
397 7 16
147 7 17
172 4 3
31 8 14
455 9 0
486 12 14
472 3 26
333 16 1
457 10 6
413 12 12
488 16 17
76 16 15
482 14 26
271 11 19
388 8 19
123 16 4
227 5 28
226 11 22
366 9 8
174 7 11
407 2 21
433 4 14
58 13 15
291 8 19
383 5 8
71 2 5
158 13 7
369 4 10
254 9 8
64 1 13
287 5 16
441 6 25
251 0 24
445 16 28
258 3 9
329 2 22
421 0 20
416 2 5
42 7 16
263 7 12
199 6 1
320 8 9
345 16 7
246 8 18
87 4 17
320 1 9
330 10 25
18 11 20
308 6 12
261 15 5
153 3 2
157 7 1
391 12 11
253 14 1
106 2 1
431 15 10
314 12 4
199 13 28
270 4 5
161 15 13
401 3 13
67 13 10
223 0 26
489 1 8
350 2 17
364 8 4
473 12 4
42 3 21
359 4 18
376 14 12
396 8 9
143 14 22
449 7 27
371 1 13
93 10 19
306 16 26
212 10 16
90 11 13
215 15 7
422 2 28
344 7 28
461 11 6
409 11 17
118 15 28
421 2 4
117 13 15
179 6 23
446 1 26
42 12 20
404 9 7
75 3 5
142 16 9
49 15 2
210 14 9
258 6 10
350 3 9
180 5 9
51 9 17
79 2 25
302 16 3
137 10 16
483 0 11
499 8 21
114 12 11
161 0 28
50 5 5
230 8 28
428 2 4
353 8 24
68 7 18
154 2 15
298 4 13
76 8 24
210 15 7
182 1 14
328 13 4
432 7 0
443 8 4
338 14 5
184 10 28
402 3 28
30 1 14
483 4 23
253 16 6
386 2 23
405 9 4
223 3 19
320 13 0
485 11 13
375 0 4
158 14 25
275 5 15
7 3 9
207 8 24
264 5 18
482 5 26
301 7 19
314 16 22
325 15 24
70 12 16
139 13 4
344 5 18
450 0 3
26 14 9
1 2 5
118 13 1
339 11 9
101 4 13
242 4 7
4 12 19
93 3 26
159 13 16
237 5 10
401 10 3
471 16 8
222 6 23
233 12 25
168 4 27
145 8 12
112 3 6
266 12 10
434 0 26
111 7 15
171 7 18
105 16 26
369 11 1
45 0 0
218 7 1
340 0 23
101 9 5
15 15 12
480 5 24
332 12 24
107 6 4
100 2 5
397 16 12
375 10 0
19 13 18
67 16 20
290 1 21
54 7 3
420 14 14
398 11 26
48 8 21
398 2 18
315 5 8
87 6 8
68 7 7
43 15 7
114 1 19
245 0 26
349 12 10
282 12 4
53 14 10
162 14 4
236 16 1
448 13 14
142 6 26
145 5 7
456 7 23
259 2 18
321 4 10
10 2 13
198 7 2
327 16 26
149 12 3
301 1 20
118 14 10
209 10 5
478 12 10
374 12 7
286 2 24
451 5 2
166 13 15
151 13 11
194 4 23
243 15 0
48 1 1
452 4 28
98 5 6
402 1 15
461 8 15
439 10 6
69 14 17
50 8 0
282 3 8
353 1 5
254 14 6
438 5 10
51 16 27
310 4 27
494 10 9
44 5 22
364 1 25
88 0 3
49 8 27
151 5 0
365 6 11
440 4 11
311 12 11
276 8 15
282 9 28
87 12 20
18 16 14
401 4 22
67 14 8
198 11 23
100 4 9
138 15 1
352 9 6
253 3 3
409 3 19
29 2 24
29 12 20
341 0 7
227 4 25
344 7 25
399 16 23
48 7 0
52 7 21
357 15 26
472 5 4
233 7 26
295 9 28
191 2 8
95 14 10
100 12 3
149 13 11
466 0 10
250 6 0
102 4 22
9 3 15
103 2 20
448 9 14
355 3 17
457 6 12
254 5 27
299 16 24
328 15 27
437 6 28
460 7 21
455 2 14
252 6 26
384 0 6
277 3 1
239 2 15
257 16 17
187 13 22
198 7 17
409 4 11
428 5 1
493 8 28
373 15 21
132 15 6
51 14 9
486 12 10
204 4 16
356 2 1
464 1 20
403 7 28
64 12 26
400 14 2
69 8 1
161 14 13
478 2 8
217 6 8
146 7 20
110 8 8
241 8 12
391 9 26
277 5 23
38 16 21
89 0 11
62 16 12
276 12 2
199 10 22
129 11 19
112 0 10
190 0 19
232 5 16
401 1 0
40 9 22
0 7 21
479 3 10
33 7 15
110 9 8
347 15 15
356 2 6
93 7 12
464 2 5
171 9 18
5 9 17
372 3 5
13 15 21
314 4 7
131 6 16
444 7 22
59 12 1
250 14 19
24 0 21
480 10 9
223 8 19
224 8 18
401 4 20
415 3 23
356 1 7
228 14 26
318 13 22
203 7 22
274 14 18
338 14 16
55 15 6
2 7 21
251 9 3
85 10 14
453 2 6
271 7 4
338 12 6
149 9 5
361 8 17
377 7 1
217 0 22
281 7 5
438 0 19
448 12 12
389 10 7
10 16 5
195 11 27
303 11 13
169 11 22
275 4 7
287 15 8
467 3 22
26 3 0
296 3 28
187 14 6
336 9 3
494 1 6
77 2 5
493 2 3
250 10 5
450 15 26
94 0 7
267 13 14
307 2 9
225 3 23
329 16 25
396 2 24
401 11 16
97 6 8
430 2 7
119 1 17
84 3 28
383 11 17
426 10 3
474 13 1
483 14 13
431 3 27
21 15 11
44 14 11
116 3 18
469 11 24
151 10 3
24 8 15
85 11 1
384 12 9
64 13 19
222 3 24
258 12 23
111 8 8
363 10 5
264 5 2
153 10 8
467 11 23
48 16 12
389 5 21
379 9 6
372 12 17
197 12 8
328 10 15
120 13 26
22 16 15
110 8 26
414 14 20
247 11 7
213 9 9
305 12 21
173 8 1
304 6 20
140 13 5
410 4 6
283 16 12
200 11 12
107 3 25
128 15 0
400 10 27
97 7 18
231 8 16
43 2 21
497 6 7
95 8 24
319 9 8
200 16 21
464 10 14
427 3 3
254 8 28
483 4 14
360 0 1
40 8 21
330 10 18
473 6 6
307 4 13
8 2 13
97 7 11
52 14 17
191 6 12
409 16 6
430 2 13
190 2 25
388 14 11
366 10 10
121 9 13
433 4 20
432 8 7
130 10 24
459 3 27
276 9 22
118 6 26
150 7 2
354 7 8
197 7 16
164 16 13
266 11 14
205 5 24
266 10 4
212 7 17
222 10 10
341 13 6
378 4 20
29 8 8
370 6 3
461 11 7
262 10 7
433 3 22
30 0 18
160 6 0
66 15 1
62 16 17
119 1 17
236 9 8
423 14 24
255 4 10
261 16 3
81 11 9
41 1 20
423 12 21
240 14 23
126 14 9
486 1 1
421 7 24
274 11 5
389 2 19
432 5 21
42 5 17
202 4 14
334 7 13
316 13 7
416 16 0
319 2 9
360 1 10
409 5 28
163 9 27
205 2 13
355 14 8
491 5 25
343 14 18
31 8 28
400 12 1
407 15 6
302 6 6
437 5 16
309 10 28
416 10 14
204 4 15
210 6 12
328 5 12
383 12 24
104 6 15
121 0 3
436 8 21
467 2 21
90 9 2
381 14 22
327 10 12
100 0 2
113 5 28
339 3 26
248 9 12
170 4 11
274 5 27
132 11 1
45 13 9
444 13 4
441 1 5
141 6 21
329 7 22
405 9 19
212 3 1
240 8 5
356 0 22
274 7 11
350 4 14
427 15 19
302 2 13
151 16 5
452 1 2
71 16 8
269 12 14
301 5 14
236 2 28
122 3 14
445 14 2
252 13 16
447 4 27
266 10 25
8 6 23
499 1 23
23 11 5
122 8 7
463 15 24
220 11 13
273 8 27
208 4 2
231 6 3
50 16 19
455 2 28
30 5 26
426 1 2
70 9 3
256 8 3
268 13 1
419 5 0
313 9 2
309 11 23
163 4 23
347 7 16
180 15 23
6 15 15
330 5 11
417 3 7
332 14 23
495 15 0
349 0 14
432 13 21
191 2 12
352 2 18
108 4 18
124 7 20
372 10 6
82 7 27
4 7 11
475 9 21
431 2 24
189 6 3
228 4 19
353 5 24
487 1 24
214 16 27
484 10 21
416 8 28
373 16 25
230 6 20
110 15 17
334 2 5
114 14 1
445 7 22
226 12 9
52 13 25
127 6 21
161 14 28
111 3 2
383 15 19
210 5 19
469 11 12
168 14 17
407 9 10
457 7 2
203 6 10
466 2 9
221 6 17
408 2 2
263 10 8
444 2 16
253 6 24
334 12 11
88 12 26
5 9 21
451 2 17
210 4 20
139 14 11
370 11 24
294 14 14
21 5 14
427 15 24
143 4 25
195 10 7
213 4 10
191 0 5
206 16 26
0 1 26
184 16 26
1 14 23
166 14 7
382 1 17
363 9 23
162 10 17
200 8 6
103 11 25
41 5 11
439 7 8
286 4 11
192 5 13
239 8 7
207 11 8
410 16 12
245 16 23
33 1 17
322 3 8
483 2 23
164 6 19
371 12 2
65 4 9
315 4 24
283 8 1
41 10 17
180 9 10
128 1 6
449 4 23
93 3 9
142 7 2
200 7 19
252 2 25
116 14 21
400 13 1
384 11 17
229 1 2
416 7 18
493 1 20
326 6 16
482 13 17
255 9 7
36 4 15
393 8 12
287 14 27
445 4 28
214 13 10
379 4 1
375 11 2
202 8 10
36 6 19
242 7 1
233 9 10
317 8 15
242 14 14
203 15 5
333 16 9
280 15 23
361 3 1
206 6 28
393 4 28
178 10 14
56 7 20
312 14 2
345 6 27
255 0 4
20 7 0
283 10 8
341 3 8
187 13 10
291 6 15
184 8 23
232 16 5
233 16 16
11 1 4
497 10 3
102 0 6
49 2 19
251 11 2
334 8 24
44 10 25
85 1 3
161 12 25
492 2 7
2 4 1
89 10 10
333 7 9
177 10 5
119 3 11
406 9 21
379 0 22
405 1 19
176 2 15
342 14 21
358 7 12
156 0 2
293 2 0
6 3 17
315 6 15
17 11 6
236 11 9
191 7 28
304 3 17
169 7 28
265 6 15
427 14 4
420 10 4
189 1 10
88 9 2
23 10 3
449 13 5
267 3 18
128 12 10
495 10 24
419 8 8
78 7 26
414 16 6
424 2 21
417 14 27
134 1 3
45 6 17
408 16 2
185 10 6
131 15 0
301 2 20
401 11 5
135 5 25
350 12 24
86 6 25
344 11 1
23 3 27
371 7 27
35 15 13
137 0 5
191 4 6
436 6 0
224 11 28
110 8 0
355 16 13
445 5 2
48 8 23
280 5 6
101 4 19
178 1 19
481 11 12
318 9 0
320 0 17
476 10 2
15 6 11
255 16 14
484 1 6
234 7 2
238 14 19
93 15 14
268 1 3
178 6 23
118 14 12
118 5 5
137 14 26
24 14 3
191 15 2
313 10 1
175 4 28
263 12 17
460 3 2
432 4 14
25 7 7
395 1 22
475 10 3
376 7 0
452 8 1
122 9 14
134 10 9
180 9 9
167 12 20
72 12 15
434 13 25
8 1 18
163 6 2
296 7 15
454 0 7
209 0 8
441 7 19
392 8 3
54 5 16
91 5 19
156 13 2
218 14 28
334 7 3
200 8 10
282 3 15
314 7 26
51 4 2
28 11 14
91 16 23
244 9 28
334 16 15
174 13 5
294 11 11
216 14 26
111 4 26
139 8 3
381 1 21
462 13 24
352 16 5
30 16 27
270 9 20
465 16 6
292 5 6
91 1 6
37 9 11
281 16 17
478 9 13
110 2 15
108 2 15
280 9 2
76 12 21
350 4 8
415 8 20
309 9 19
2 10 25
301 7 19
148 6 28
364 8 19
87 14 3
174 7 0
377 7 2
499 9 16
81 8 11
160 3 9
402 1 27
326 8 1
455 15 16
134 10 8
356 0 12
86 15 15
58 5 12
79 12 23
195 13 5
381 10 3
339 4 27
162 1 21
319 7 18
307 9 8
439 9 22
476 2 9
219 12 22
330 11 24
112 5 23
140 1 2
151 6 16
391 7 2
32 8 6
20 10 6
480 15 20
325 3 7
195 11 8
8 0 16
432 14 26
343 6 12
229 3 4
381 16 19
162 1 28
410 10 19
52 2 21
413 16 14
125 15 23
2 9 3
460 14 20
25 6 1
394 16 0
349 10 0
335 5 7
387 7 23
176 15 12
380 14 9
290 11 3
21 13 20
421 13 0
230 4 1
197 9 22
50 4 22
10 1 4
285 7 18
181 15 13
399 4 15
184 16 9
356 12 25
248 10 13
355 5 21
440 1 25
227 3 8
405 9 14
24 11 23
306 16 7
410 2 5
175 14 10
354 15 20
480 13 19
98 4 9
117 4 7
7 0 26
481 8 3
408 0 2
17 16 6
2 1 13
64 9 22
142 0 27
83 11 10
153 14 8
277 1 19
428 7 8
94 2 0
491 10 4
176 9 26
198 2 23
59 0 7
429 12 6
333 7 19
126 7 3
96 5 11
111 16 17
378 2 27
233 8 14
338 15 4
469 10 2
477 6 7
28 14 25
326 3 18
149 1 28
247 0 19
147 5 28
442 14 26
114 1 1
236 2 20
104 14 25
97 7 21
313 12 7
227 16 4
367 5 3
474 1 17
478 14 17
262 7 21
127 14 1
289 3 5
192 16 26
372 2 8
218 2 8
130 10 0
43 1 9
163 13 23
309 11 0
65 3 19
244 3 20
9 11 17
76 16 2
361 12 26
294 6 16
234 0 1
220 13 25
230 9 4
316 2 9
296 7 13
302 0 1
196 5 0
377 9 7
101 9 5
491 5 9
264 13 15
198 12 7
199 10 15
461 8 11
220 12 24
293 9 23
268 14 28
289 13 19
0 14 8
205 8 26
361 9 17
315 12 24
205 15 19
121 12 1
74 2 0
88 15 28
457 5 17
289 0 4
387 6 21
103 13 20
404 7 20
271 2 3
49 12 17
205 15 7
341 8 25
189 3 21
34 4 17
102 5 20
494 16 15
274 13 20
183 15 4
131 11 23
186 13 4
103 4 3
303 15 7
464 9 28
179 4 10
96 8 28
98 10 25
135 1 11
166 12 18
400 9 25
442 16 6
344 1 13
452 11 20
488 8 26
129 4 19
153 11 21
53 11 14
355 2 15
354 14 22
297 6 18
4 8 12
368 5 11
308 7 11
454 7 28
338 1 28
425 6 8
405 0 19
466 16 3
302 9 1
226 11 21
253 0 12
94 3 1
4 16 0
46 1 27
150 0 6
48 14 23
312 6 8
75 2 23
471 16 17
143 1 11
455 10 25
468 11 19
458 15 10
41 3 5
385 4 6
415 13 18
58 9 14
204 9 15
108 15 10
119 16 1
41 8 13
269 8 23
295 7 4
247 1 22
311 6 21
201 6 24
128 6 1
1 1 2
394 11 4
198 11 22
437 6 19
103 8 1
247 6 28
456 5 4
338 12 9
115 11 11
142 1 19
18 0 8
180 14 1
116 1 25
18 6 1
48 13 19
264 9 28
421 9 2
287 4 7
25 15 6
374 6 24
117 5 8
251 1 9
447 4 26
354 8 1
329 10 8
369 10 2
268 3 22
15 13 0
267 11 12
274 12 17
434 3 17
344 15 28
212 14 5
27 11 14
482 16 5
69 4 2
217 0 14
263 1 1
304 8 18
283 0 1
467 4 16
469 2 11
312 1 18
446 7 0
300 11 12
287 6 20
344 13 4
211 15 8
92 3 27
349 7 3
300 13 28
138 7 24
255 6 5
265 9 5
95 8 24
1 10 8
302 14 11
48 7 12
171 16 21
3 16 5
482 5 8
324 15 18
402 1 25
345 6 0
176 9 19
365 12 3
389 1 0
217 9 17
328 8 8
65 16 0
231 4 11
412 14 4
330 12 4
109 2 17
499 7 17
376 15 19
404 4 17
238 13 27
281 3 19
146 5 11
131 11 5
99 0 1
249 6 28
248 4 0
436 10 24
321 4 11
372 3 18
234 5 17
428 3 2
76 2 18
491 8 17
199 8 27
140 0 0
4 9 6
109 11 5
217 12 19
330 3 19
12 0 10
370 3 3
255 1 0
138 9 25
80 5 15
337 5 21
274 11 7
5 12 9
331 14 26
285 10 16
334 1 17
399 5 3
246 6 19
370 12 27
143 10 8
11 6 17
36 2 3
141 16 23
128 3 22
210 3 3
303 2 11
6 4 1
215 4 10
165 14 15
241 11 9
373 14 24
146 0 18
185 15 3
270 4 13
318 3 25
273 5 25
432 15 10
107 16 14
258 4 13
405 3 24
298 4 27
400 3 11
230 6 10
394 16 27
358 9 23
192 0 13
4 12 19
289 11 11
451 0 19
98 4 17
377 11 15
2 15 8
26 15 3
195 5 11
126 11 7
52 1 3
75 11 3
259 14 25
235 11 7
83 0 21
42 13 12
119 15 16
94 7 16
486 1 20
257 16 22
494 15 4
50 8 9
52 9 22
60 1 23
332 11 24
271 1 3
243 13 0
401 4 15
279 6 18
28 2 10
274 14 14
331 3 22
38 2 23
127 16 16
311 10 24
423 11 15
499 9 3
326 15 27
251 10 27
288 16 19
150 6 23
239 8 8
146 5 15
473 2 4
401 10 19
305 8 20
454 14 22
159 10 0
76 11 28
65 0 15
466 3 19
190 3 28
460 8 21
84 0 18
319 4 26
111 7 6
406 5 17
8 5 10
196 4 5
488 9 23
138 1 13
356 9 3
393 4 4
432 7 0
5 13 28
254 1 16
70 11 20
372 7 24
64 8 8
0 15 15
144 6 7
231 8 2
16 10 11
394 3 26
387 14 6
292 1 26
107 6 25
469 16 10
419 14 7
185 10 1
268 10 13
329 10 6
432 16 2
15 8 14
367 0 12
456 12 26
67 8 5
306 11 22
87 10 26
454 6 16
42 9 14
43 10 9
60 5 10
344 8 16
206 14 25
241 11 20
16 4 11
121 0 21
338 11 24
52 8 15
325 9 27
440 11 16
161 3 14
108 12 11
445 11 28
392 6 11
105 0 23
364 7 6
417 10 22
488 3 15
47 12 26
361 13 21
137 4 15
63 11 17
332 0 19
457 13 24
327 14 3
460 3 3
14 9 22
181 15 19
172 12 27
472 9 7
412 16 20
498 5 24
293 11 25
133 1 27
144 0 15
408 0 19
286 14 1
95 1 19
491 9 6
409 16 6
225 5 15
444 14 7
9 4 7
494 15 15
130 10 11
415 9 2
480 14 19
468 11 8
35 8 24
131 9 24
383 1 6
497 16 24
418 2 1
74 14 13
216 0 2
437 15 9
367 6 11
149 9 3
106 16 4
98 4 2
498 2 20
312 15 3
285 10 4
228 2 12
248 6 25
370 6 25
116 0 22
154 5 3
317 11 7
177 14 17
4 2 25
87 14 9
126 9 8
67 9 16
123 16 14
283 12 12
301 13 14
26 14 11
45 12 17
326 9 15
330 14 22
174 8 13
447 5 14
473 8 20
131 9 11
306 3 1
235 9 7
71 10 27
430 0 16
332 9 17
15 11 7
234 3 8
440 12 8
104 7 27
497 13 19
54 15 9
1 6 12
212 8 10
7 14 2
270 1 26
401 14 25
498 5 13
453 6 27
426 3 1
298 16 2
124 10 15
162 0 12
189 15 1
228 2 0
175 9 1
183 10 2
108 7 18
335 1 12
403 6 23
239 8 25
241 8 2
89 13 9
331 1 11
143 4 28
170 10 17
369 10 18
77 7 8
140 13 4
91 5 14
414 12 19
363 15 19
231 9 23
243 14 4
292 1 21
322 13 25
178 3 23
117 9 8
117 3 5
327 13 22
18 2 16
459 16 9
430 12 16
186 5 25
12 8 20
247 7 13
221 14 19
190 7 21
131 16 3
428 1 14
247 6 28
108 14 22
233 8 12
322 15 8
391 15 4
359 3 2
294 15 8
241 10 22
453 14 8
210 2 18
105 9 12
487 8 27
373 14 20
485 15 11
23 7 18
6 12 21
24 12 7
370 9 5
467 10 1
126 11 3
336 11 26
60 13 22
478 6 1
415 2 25
122 14 28
82 10 12
289 11 4
314 8 19
128 7 3
286 5 12
474 14 9
345 12 12
426 7 17
91 8 17
380 16 25
307 3 4
426 15 15
228 10 12
144 0 7
486 5 26
366 12 28
314 2 2
262 12 26
64 12 27
309 1 11
250 14 11
262 5 21
0 13 5
266 1 18
37 3 14
189 5 24
300 2 21
217 14 6
230 6 6
217 16 21
219 8 5
390 10 11
400 0 20
330 16 3
64 7 18
335 0 27
58 13 3
152 12 25
364 0 24
398 10 26
160 0 26
108 5 25
358 9 1
374 13 20
412 11 7
251 8 27
301 3 1
206 6 21
229 7 27
189 3 20
282 3 22
254 15 14
320 16 27
186 13 10
328 10 25
250 11 20
8 4 13
134 6 27
209 3 28
207 7 23
1 13 19
217 16 0
491 14 14
163 8 13
485 9 7
204 4 3
493 14 14
270 15 20
485 5 1
455 11 14
435 2 15
352 16 15
129 3 23
322 11 27
208 1 24
200 5 5
16 16 4
275 14 18
281 16 2
482 0 13
55 10 11
191 2 9
423 7 21
279 3 23
241 5 18
386 14 8
37 5 11
371 8 16
478 4 28
70 10 28
497 16 6
43 15 21
171 9 4
63 5 11
47 1 23
284 0 19
439 15 14
202 8 1
417 8 6
398 16 28
429 0 14
23 2 15
453 10 13
140 1 11
323 15 18
401 16 9
160 4 25
162 2 4
280 11 7
475 16 17
211 0 20
122 16 18
150 15 15
300 16 17
88 0 4
495 1 3
441 14 3
306 2 25
121 8 20
190 5 12
150 14 13
242 9 13
377 3 10
251 10 15
168 10 13
442 16 14
396 13 26
11 15 2
123 5 18
344 2 4
474 7 27
223 4 6
134 0 0
352 4 26
259 7 28
281 4 17
73 0 8
205 16 5
85 10 1
304 14 1
74 16 12
214 9 6
77 14 8
463 14 13
126 1 10
272 7 19
197 14 9
50 4 2
230 5 3
238 10 3
18 2 26
432 8 22
235 13 19
370 9 18
131 5 22
146 14 7
57 5 27
142 0 27
244 13 10
15 0 15
157 9 26
378 12 0
119 14 22
289 6 24
227 4 3
284 10 3
139 3 17
454 8 13
218 11 27
66 1 12
427 0 22
463 16 25
403 10 3
457 6 26
56 15 0
261 4 26
357 8 20
94 6 28
495 15 18
132 11 11
302 4 18
329 15 15
110 11 14
483 0 7
449 14 21
152 11 18
112 8 11
333 12 8
33 2 20
53 6 13
494 11 12
382 4 16
415 1 11
274 0 13
131 1 22
178 5 6
219 7 18
17 3 6
323 12 4
6 6 14
105 14 5
296 9 25
201 6 28
260 13 2
404 9 12
268 2 5
22 7 23
181 16 16
472 0 10
474 3 10
42 7 12
468 13 18
234 0 21
76 1 6
228 0 3
397 10 21
20 15 7
261 14 11
245 10 19
204 6 17
423 0 10
165 2 25
240 16 6
111 13 11
32 13 28
233 4 22
106 13 2
12 6 19
2 1 13
99 12 24
490 8 19
446 0 12
89 14 0
181 6 3
488 1 4
109 10 15
347 2 2
315 13 20
44 14 12
306 16 22
361 4 27
352 5 27
221 16 3
324 6 11
485 14 17
326 13 24
145 10 21
390 7 8
180 0 2
348 10 19
23 3 15
441 12 14
190 3 6
73 6 3
276 4 17
115 14 27
400 4 15
180 13 12
462 12 24
452 5 15
353 10 16
428 4 7
260 5 15
446 6 4
33 12 24
486 5 16
445 5 4
212 9 16
133 1 14
366 16 2
387 6 8
131 5 15
168 3 0
392 8 4
236 0 2
6 9 3
396 13 17
282 2 19
81 3 17
342 9 5
171 2 18
40 7 3
10 9 12
16 10 23
427 5 7
470 2 2
88 1 3
223 15 25
169 9 24
269 3 10
438 15 5
197 4 28
429 3 5
257 7 5
200 7 10
346 16 23
306 0 10
450 15 15
294 16 15
59 11 27
300 4 18
292 10 3
11 5 18
67 4 19
297 9 0
483 12 23
109 10 21
359 15 9
194 13 7
494 13 16
201 1 5
298 7 26
243 6 16
440 8 3
342 10 10
190 13 23
362 2 1
152 8 25
359 14 5
177 7 14
246 8 13
377 8 20
91 9 9
486 11 7
272 15 17
187 7 2
324 12 0
145 14 21
288 0 24
291 7 3
331 10 6
430 14 28
14 0 6
64 9 19
70 12 15
437 3 15
410 10 7
243 7 28
184 12 14
264 7 12
485 7 4
365 14 26
115 16 8
467 5 4
153 16 0
129 10 27
223 0 23
10 13 7
353 15 24
17 9 17
466 16 26
131 3 25
296 4 27
110 13 1
301 1 12
98 8 14
306 10 8
173 14 26
89 4 18
10 13 12
364 3 21
202 0 5
421 7 22
395 15 8
78 16 16
256 10 17
415 14 19
478 9 9
426 0 26
17 1 4
126 9 24
145 8 22
261 5 3
151 1 21
379 1 25
220 1 21
166 2 13
163 10 19
428 4 22
317 3 7
394 4 14
63 7 13
483 12 6
157 15 21
243 12 20
300 9 5
267 2 20
349 0 22
338 16 24
20 16 3
398 13 18
271 5 19
428 3 1
352 6 14
499 9 4
310 10 2
424 2 15
42 12 26
92 11 19
343 16 24
22 6 4
374 8 1
417 12 5
464 13 20
394 12 1
459 10 18
492 0 8
95 3 23
54 5 23
76 14 6
302 6 23
237 6 12
110 0 16
392 4 21
177 9 22
237 10 15
268 6 0
7 9 10
8 8 10
94 15 4
58 9 28
387 7 26
99 6 20
420 7 9
382 10 2
389 2 19
71 9 27
323 8 27
121 13 23
199 12 20
341 4 21
98 4 19
132 8 27
111 13 23
364 12 0
220 7 14
140 16 28
246 2 21
402 14 1
293 14 17
98 14 9
377 10 9
263 1 27
187 11 26
259 7 4
206 3 23
13 11 0
271 6 12
310 2 2
15 11 1
363 3 17
230 5 18
38 11 18
281 7 27
487 9 20
116 13 17
135 3 16
436 12 3
213 14 5
371 0 26
366 8 15
105 8 3
100 10 0
222 7 1
450 0 5
252 6 24
89 10 24
454 16 11
140 0 4
321 15 21
0 2 28
178 11 18
86 5 19
53 14 16
295 15 22
372 3 6
231 16 3
308 7 2
149 4 3
69 7 7
64 11 28
336 2 2
492 7 21
191 10 5
234 8 21
63 12 14
301 7 27
181 14 23
105 11 18
91 2 28
71 8 12
177 11 14
493 4 18
239 0 11
0 11 9
110 6 26
427 1 17
47 13 26
40 5 5
244 6 16
414 10 25
347 11 0
122 15 5
279 3 18
315 5 27
67 5 10
455 1 8
288 0 8
51 8 23
104 1 3
441 8 2
359 4 16
486 1 20
209 10 19
377 11 28
449 12 20
484 1 15
445 10 11
224 7 23
101 8 14
216 16 23
433 6 12
362 5 21
258 10 19
467 6 17
183 3 22
367 6 6
71 8 28
269 5 26
472 0 1
480 3 14
207 14 3
367 10 18
336 10 11
51 9 0
289 8 12
89 7 15
358 9 25
370 7 4
218 3 18
375 4 11
101 6 13
436 9 17
279 4 18
288 3 2
97 11 6
317 8 18
16 14 2
8 3 8
490 12 3
387 7 2
25 6 12
402 1 26
12 0 8
372 14 21
415 0 24
385 6 16
119 16 21
224 8 2
325 16 15
444 1 18
231 2 21
497 11 11
1 1 6
286 5 2
151 10 10
14 0 2
65 3 4
219 7 9
342 14 6
237 10 12
235 8 2
492 12 15
407 8 24
381 7 6
386 3 13
439 5 25
194 9 19
433 13 28
445 10 2
412 10 12
115 7 17
364 14 22
268 13 15
104 16 8
359 9 8
460 4 15
241 16 25
479 4 9
331 6 19
289 14 2
10 6 20
175 4 7
254 10 19
495 8 11
322 4 23
342 3 27
10 14 28
183 10 7
128 10 3
26 3 16
413 4 7
323 15 21
200 12 0
325 13 17
232 11 27
216 3 4
146 14 18
168 5 21
416 6 2
167 10 10
326 2 15
181 12 16
84 9 13
177 8 2
307 10 27
269 12 17
479 2 0
52 6 22
118 6 3
112 4 8
206 4 4
474 3 2
176 5 6
445 3 2
196 1 26
202 9 1
404 13 28
88 5 3
479 3 25
177 2 21
163 13 24
336 9 24
438 9 20
467 4 7
266 7 5
429 10 18
387 3 18
76 13 13
443 2 16
460 11 5
408 14 28
280 2 1
287 12 3
184 14 11
17 4 25
290 12 17
285 7 2
354 11 27
356 11 22
146 15 15
216 2 8
281 16 17
230 13 22
389 5 21
287 9 16
492 16 10
441 9 25
164 15 28
21 9 18
459 12 19
478 15 6
58 14 24
20 6 28
484 8 4
265 5 2
76 8 16
370 3 26
491 10 6
287 5 24
292 4 27
73 2 10
58 8 18
43 12 4
354 13 13
498 4 15
175 3 23
384 9 17
114 2 3
8 6 13
324 15 20
447 15 23
311 1 16
494 15 19
114 4 25
493 14 7
335 13 14
222 0 26
315 2 5
99 4 8
247 13 22
487 13 19
275 4 21
277 14 23
336 9 10
212 8 14
315 2 27
214 16 21
128 14 25
244 7 24
333 13 18
445 3 15
390 5 3
246 2 21
465 6 12
416 2 21
291 5 25
166 16 11
288 12 22
5 10 25
6 0 19
447 4 24
150 15 23
189 5 4
185 15 27
202 4 26
373 7 15
185 9 10
312 3 15
273 13 4
167 16 16
4 10 4
140 14 1
154 2 27
236 7 21
498 6 28
465 4 4
415 2 14
178 9 0
86 10 27
173 10 25
404 7 3
406 2 24
478 4 21
92 16 9
86 9 5
439 9 22
353 8 6
314 8 21
38 6 7
41 3 13
54 6 19
268 0 18
235 11 6
312 0 13
494 3 19
476 3 13
376 13 3
454 1 15
98 15 27
15 3 22
148 16 24
63 2 13
219 7 26
350 11 11
412 11 8
428 14 1
116 5 20
343 12 14
472 14 7
433 16 14
156 0 18
328 8 22
159 7 12
299 3 11
104 13 18
315 15 19
134 12 26
497 13 20
404 6 10
465 7 10
400 7 21
334 5 4
55 3 11
145 2 15
171 9 22
298 13 8
251 8 0
465 4 6
344 14 27
385 1 15
125 16 27
332 4 0
465 16 8
273 0 17
35 11 6
205 3 15
192 13 13
316 12 8
454 1 13
315 15 23
387 13 10
446 11 1
175 16 20
284 0 7
104 7 21
229 14 14
141 0 12
170 15 0
340 8 22
413 8 8
347 11 9
107 5 6
75 10 7
452 7 7
384 16 4
331 0 8
217 13 23
104 12 9
324 16 20
0 5 1
221 11 11
325 10 22
263 13 9
349 14 20
261 3 13
326 9 19
466 11 3
353 8 2
463 5 4
252 3 7
190 9 10
171 7 25
331 12 14
92 0 15
372 13 24
300 7 15
124 8 19
49 3 27
12 5 12
465 11 27
72 8 10
221 10 10
186 10 14
424 10 20
429 11 7
61 16 10
269 1 16
463 10 0
1 12 28
231 10 28
56 4 3
1 1 2
413 9 28
68 5 5
107 9 7
345 6 2
485 6 1
8 2 7
255 16 28
262 16 20
234 7 1
467 3 22
353 2 1
146 3 20
136 3 17
251 8 11
453 12 15
205 11 11
394 8 2
243 11 8
239 1 0
203 14 25
111 13 0
210 10 19
151 9 20
420 0 7
363 11 4
209 15 4
289 7 24
124 7 2
312 6 0
193 0 2
265 10 11
458 1 4
112 7 17
39 0 9
356 4 24
296 5 6
498 2 12
363 14 23
370 6 15
223 0 3
52 13 22
78 10 26
321 12 23
421 11 15
301 5 23
316 10 9
99 10 3
401 5 1
378 1 13
429 1 18
445 11 18
82 1 28
152 6 19
429 12 27
200 4 1
419 7 9
321 3 9
329 5 14
374 8 21
342 4 5
106 7 27
6 15 21
246 2 15
431 11 13
303 5 19
299 15 10
310 1 9
373 15 24
78 7 21
194 7 20
7 15 21
342 7 1
4 6 26
82 15 23
328 13 12
122 13 26
487 12 12
182 16 14
468 4 22
357 12 9
328 1 20
357 10 20
356 6 23
495 14 3
303 8 0
183 9 18
15 10 26
65 14 11
282 4 0
235 15 10
307 3 19
89 10 5
0 2 25
199 1 18
271 10 11
52 11 25
257 0 2
38 10 5
370 3 2
442 8 15
416 4 21
60 0 5
88 0 27
52 2 5
214 9 27
362 10 22
456 5 10
319 12 20
20 15 1
256 3 12
195 1 13
115 16 14
285 14 2
411 12 27
300 12 5
32 12 1
88 7 15
37 5 7
8 15 3
322 9 26
268 1 14
125 4 26
222 0 15
286 2 9
278 9 8
305 9 20
88 12 17
21 12 17
35 6 3
82 16 6
39 11 12
64 4 18
116 14 28
280 7 10
261 3 25
100 4 9
349 1 11
180 16 8
139 13 15
29 7 26
390 13 10
452 2 1
392 6 0
285 11 10
81 16 11
105 1 12
205 0 11
475 2 4
444 14 7
313 16 2
315 10 21
476 0 11
336 7 28
80 13 10
104 15 25
297 4 1
387 4 20
367 6 8
421 12 18
110 4 15
487 15 14
387 3 17
422 13 26
495 6 4
199 8 17
427 1 8
401 7 14
58 0 4
110 1 19
183 0 26
164 1 14
213 1 25
250 2 9
190 9 18
146 1 3
49 6 7
334 10 25
90 15 22
102 13 7
304 9 19
221 3 28
88 14 11
299 8 4
131 0 10
86 6 18
62 14 5
291 6 22
429 10 1
437 7 28
435 11 4
472 15 24
159 3 27
253 2 14
43 12 3
225 10 1
188 1 0
97 11 16
337 15 24
111 13 4
315 1 13
242 3 5
402 13 10
168 13 13
280 6 7
418 3 2
399 7 26
22 0 5
159 4 0
454 2 7
146 11 10
122 6 16
195 4 17
186 6 8
201 16 8
50 9 4
215 5 9
154 7 16
417 7 25
469 6 26
439 5 9
204 16 1
66 10 13
418 1 9
82 5 20
260 8 20
274 8 3
256 7 14
290 7 23
157 15 13
100 7 25
218 12 13
83 2 2
26 5 8
249 15 16
141 15 2
80 7 24
377 15 28
16 12 28
61 11 15
437 0 28
138 9 17
188 0 3
0 5 8
16 11 19
17 3 9
247 15 20
385 1 23
471 0 25
218 9 24
375 9 4
181 9 16
26 2 3
126 6 4
328 7 21
414 15 2
360 2 5
227 5 9
435 12 18
423 7 28
144 7 25
141 16 17
64 13 1
276 14 14
392 1 22
282 13 6
18 1 14
424 16 19
412 15 24
273 15 17
487 8 9
281 6 9
275 5 0
373 15 16
262 2 20
69 0 11
333 0 11
307 14 1
79 13 17
347 11 14
468 7 15
492 15 13
47 13 24
317 15 16
336 0 28
307 13 20
292 10 27
91 14 25
46 12 7
160 13 24
16 13 11
238 14 7
287 2 11
224 13 0
337 11 27
68 3 14
94 1 10
371 6 7
388 10 8
208 0 3
19 14 17
415 5 20
262 15 22
176 3 14
136 6 15
436 1 4
50 6 9
267 0 0
407 9 1
64 7 1
307 7 21
205 1 27
90 1 24
230 4 12
427 14 26
121 15 8
459 10 19
13 1 8
41 9 9
56 1 10
262 16 8
353 15 10
136 11 20
313 15 5
452 8 8
495 6 11
284 5 2
101 14 4
360 8 20
192 1 17
420 13 7
39 11 24
89 12 23
278 2 5
303 3 18
216 16 25
52 3 12
391 13 25
364 10 25
132 14 7
193 7 20
210 6 18
299 0 23
456 8 7
46 10 14
227 10 19
394 2 14
188 12 21
431 13 6
177 10 20
163 12 19
393 10 27
202 7 6
392 12 8
51 7 15
362 16 21
69 7 6
459 14 5
26 10 23
110 6 11
183 13 17
183 8 11
57 10 24
312 15 26
256 9 11
0 13 7
78 11 16
350 4 0
129 5 3
92 12 21
149 13 26
303 16 10
343 14 3
80 0 25
183 9 10
322 3 21
362 15 0
315 7 1
206 13 24
463 16 14
234 0 28
392 8 28
257 13 0
163 2 28
130 5 13
151 1 17
148 11 12
200 3 27
261 13 18
32 8 15
443 16 10
55 8 15
376 14 28
320 9 22
126 0 17
273 7 25
98 12 15
384 7 8
63 11 16
0 8 11
38 3 14
183 8 2
484 7 17
22 16 18
204 14 26
423 2 14
341 8 23
253 13 5
385 2 1
365 10 11
6 14 8
244 10 20
294 4 14
420 8 10
425 6 26
403 3 15
378 11 28
291 12 19
446 1 19
244 15 25
347 6 21
46 13 7
175 7 27
124 2 7
69 8 20
120 7 22
337 12 7
22 4 28
140 1 21
395 15 23
241 11 3
68 12 8
24 15 1
95 8 22
80 3 21
131 6 14
316 7 11
404 6 26
417 13 16
424 3 17
284 9 7
289 4 14
321 5 13
182 6 2
482 13 17
182 14 6
282 3 4
127 0 15
352 2 5
265 4 8
98 15 4
14 8 21
342 16 14
246 5 25
116 8 15
232 11 12
217 16 18
139 15 11
280 5 19
9 1 27
351 15 19
164 9 18
103 4 0
430 16 23
401 3 21
50 1 4
282 3 23
75 13 12
417 11 20
99 12 7
309 2 24
237 9 10
46 10 7
35 1 2
59 13 28
278 6 27
117 7 13
266 11 5
447 2 2
325 10 21
26 1 2
313 4 23
390 11 11
129 2 23
455 5 19
293 13 17
421 6 2
18 9 11
93 10 20
470 16 17
432 1 24
35 0 3
147 1 10
486 8 20
150 1 14
440 12 24
54 8 1
58 8 28
65 13 24
401 12 26
440 8 20
1 2 10
175 12 21
322 4 3
480 2 21
94 2 25
11 15 19
383 4 4
460 6 11
425 9 4
49 2 10
464 13 22
444 8 3
465 3 28
239 0 15
311 6 11
91 0 20
261 1 12
0 14 13
351 10 21
290 16 25
247 2 9
150 4 25
255 12 12
387 13 1
319 8 6
388 12 4
428 9 5
438 0 28
419 14 13
40 12 18
254 13 18
12 12 28
15 14 23
431 5 9
35 0 28
215 16 11
492 12 14
351 15 13
202 3 4
220 7 2
73 12 1
223 2 0
487 1 1
221 4 10
41 4 26
197 4 11
383 6 26
352 13 27
136 2 28
23 2 8
323 15 12
222 12 1
142 3 13
174 15 2
172 7 11
376 11 8
286 13 16
332 0 0
201 9 12
77 10 28
220 1 7
449 0 15
385 12 8
457 6 0
462 3 22
250 5 13
457 12 8
200 3 26
297 12 15
137 1 14
291 15 0
49 11 11
290 4 5
114 2 14
315 15 22
44 14 8
147 13 9
448 12 12
270 10 24
32 3 11
322 3 17
417 3 7
256 12 20
123 0 6
367 8 22
128 15 25
143 12 1
367 15 24
174 7 8
5 13 11
42 12 27
68 15 4
341 3 15
168 1 15
145 0 19
292 2 27
74 10 7
62 10 28
397 11 19
204 3 1
114 4 16
308 7 0
56 8 10
47 12 15
320 9 27
374 7 17
343 4 2
166 6 26
182 13 9
309 4 20
499 8 23
123 12 24
133 8 9
367 9 24
196 12 4
49 15 9
173 9 3
18 14 23
377 15 1
54 1 22
433 1 6
437 0 4
211 13 28
76 2 0
446 15 24
204 11 10
484 6 16
232 13 19
2 12 25
57 11 15
390 5 4
316 8 13
89 15 2
186 14 10
258 12 9
256 12 27
71 15 0
161 1 18
446 0 25
416 13 24
331 4 12
228 0 27
197 6 12
310 15 25
301 8 27
315 2 11
417 13 21
373 12 10
349 7 4
232 4 15
434 10 19
79 3 11
177 15 10
168 11 12
444 4 18
338 5 17
492 16 6
199 11 6
458 7 0
185 1 26
305 5 1
181 11 21
198 6 3
447 13 28
407 12 15
477 15 2
6 14 21
166 1 8
114 2 5
143 8 4
472 14 24
188 10 2
69 1 19
289 7 15
95 11 11
477 3 24
469 11 24
463 11 5
419 15 20
290 2 10
223 9 17
44 9 28
223 3 19
29 12 9
187 16 24
243 15 22
454 6 23
159 2 14
223 15 3
427 10 3
222 15 28
256 11 5
461 2 21
139 4 0
310 14 6
328 0 9
289 16 10
269 3 23
262 10 26
211 13 16
185 12 15
496 0 4
248 0 17
449 3 7
161 1 13
206 3 14
23 14 16
199 16 23
195 13 7
267 6 12
428 10 18
317 15 9
163 11 2
107 15 1
9 4 13
436 11 10
405 12 2
215 13 4
431 2 5
417 16 23
173 2 15
293 0 18
31 8 15
244 2 18
360 6 22
392 11 23
439 0 11
7 5 8
499 6 25
34 0 10
340 3 23
271 5 0
185 13 9
401 1 1
77 14 14
237 8 12
160 13 23
328 9 12
413 5 23
249 9 18
452 12 28
446 15 3
398 8 12
289 0 9
77 1 5
459 4 26
405 3 0
277 7 19
438 6 20
148 10 25
40 5 10
58 15 3
166 2 24
337 1 26
246 14 26
144 2 9
305 1 16
161 12 8
29 7 1
357 16 18
337 3 12
125 9 19
405 8 25
171 8 3
178 1 27
51 3 19
237 3 21
159 4 7
408 15 28
135 14 18
301 10 2
94 4 27
125 6 18
471 13 7
8 8 8
363 10 10
410 4 14
19 7 23
377 12 25
476 14 18
56 13 14
111 11 21
426 8 20
101 12 15
312 0 24
232 0 26
325 13 8
147 1 0
16 10 10
423 14 18
246 15 22
69 9 6
145 14 8
278 13 24
473 12 7
181 11 19
391 0 3
142 0 3
486 11 12
391 14 23
37 12 25
241 14 2
322 2 11
398 5 5
16 0 13
76 14 19
165 13 24
13 2 15
147 4 12
92 2 3
243 3 4
399 3 24
196 7 14
180 7 23
205 0 11
132 0 21
13 0 25
282 9 1
331 16 2
138 9 5
125 7 27
415 0 25
486 7 16
155 14 24
301 5 19
113 9 2
413 12 16
18 10 19
216 12 19
383 4 0
55 13 11
183 6 22
467 12 20
392 11 9
213 8 27
18 0 13
338 13 12
250 11 2
2 14 27
38 2 26
311 6 15
362 14 12
171 6 15
360 5 8
456 6 24
442 5 17
475 15 15
311 16 24
458 1 20
425 12 14
426 2 18
198 16 4
177 1 26
129 12 26
369 8 22
445 12 10
225 15 22
133 8 21
445 12 2
341 10 12
210 13 19
486 11 8
154 13 10
351 10 8
407 16 7
467 11 15
313 1 24
9 7 21
221 2 6
240 6 2
378 6 24
53 7 18
467 6 3
399 13 12
183 10 9
119 5 3
99 7 0
489 15 1
308 0 27
364 6 15
128 3 13
233 13 1
376 2 12
103 11 28
135 6 16
317 3 17
243 10 27
92 6 18
373 5 19
222 0 9
139 12 17
257 4 15
94 9 11
175 0 9
468 9 24
286 2 0
357 12 19
479 11 17
63 9 12
118 12 19
206 10 6
51 9 6
378 6 1
498 16 22
216 8 17
154 4 25
151 12 11
378 14 22
53 0 17
423 13 12
253 0 8
91 16 28
289 1 25
407 7 3
46 12 2
325 0 14
371 1 25
489 2 18
182 10 3
70 2 15
242 9 14
148 9 14
420 16 14
318 12 21
251 0 8
178 6 23
159 15 6
445 1 5
104 14 16
72 11 0
5 5 0
291 16 22
250 15 13
446 8 25
317 0 13
128 0 13
199 3 7
462 1 23
297 2 3
287 2 27
409 2 12
352 12 12
334 4 5
361 0 25
499 9 1
285 11 21
405 12 5
30 5 8
175 5 15
410 13 17
488 11 16
169 9 27
369 4 8
63 1 0
61 5 23
21 11 6
229 13 0
233 9 26
366 6 18
357 7 14
224 5 2
24 3 26
282 0 1
166 1 5
224 15 23
447 1 9
232 16 9
22 16 25
97 6 10
38 1 8
198 11 17
440 12 19
423 7 14
392 8 3
55 14 25
112 9 13
105 1 14
335 13 18
22 15 14
81 13 20
250 2 25
106 1 27
188 4 26
5 6 21
327 2 0
499 12 24
188 4 1
307 1 9
243 1 13
86 13 4
204 3 4
122 13 3
83 15 20
245 14 0
140 4 1
78 3 28
413 8 19
331 10 23
389 14 3
79 7 5
128 7 3
484 16 16
280 13 9
378 9 3
14 4 1
168 15 28
393 13 18
356 4 12
242 4 7
160 7 5
67 1 22
35 11 26
212 14 0
360 7 3
36 15 3
9 10 26
231 9 17
372 2 0
279 9 9
65 8 18
166 13 20
490 3 12
265 7 17
410 7 24
337 4 13
279 11 23
425 9 16
58 2 25
15 13 7
135 4 9
281 14 20
16 3 14
52 16 21
282 1 0
321 4 15
86 3 25
265 10 15
312 0 24
304 10 11
170 10 1
333 5 23
494 10 9
313 3 27
144 2 20
92 16 22
210 15 9
11 10 11
436 6 9
233 3 27
483 0 22
163 12 10
127 13 2
42 8 0
206 16 2
118 15 18
461 8 26
429 0 22
302 3 8
86 8 8
331 13 11
144 2 14
154 6 25
127 3 9
374 4 2
166 3 8
298 13 6
453 11 28
493 9 18
425 1 15
464 13 28
220 15 1
207 12 2
94 10 2
205 9 20
135 1 26
357 3 24
335 16 17
457 0 22
322 9 12
360 1 27
26 16 27
13 13 11
20 11 13
271 8 23
73 5 25
3 8 21
308 2 21
85 9 2
93 8 16
122 0 5
172 14 28
317 0 23
325 14 27
439 4 9
371 8 13
10 14 4
305 9 25
280 2 22
155 14 26
477 16 14
405 14 26
272 5 1
48 13 6
186 6 23
25 4 12
292 16 16
8 10 21
318 16 19
300 10 20
155 0 14
402 4 2
175 3 23
340 7 9
26 12 13
384 14 13
221 5 6
130 1 28
157 1 15
356 8 9
163 3 18
349 3 4
182 3 24
335 2 12
133 9 5
1 8 26
301 10 11
186 9 27
104 7 25
346 15 14
358 2 15
261 5 9
357 5 22
280 14 20
391 13 0
174 4 11
397 3 28
418 6 20
390 12 23
9 11 14
364 8 11
260 12 0
119 12 11
411 6 19
96 10 23
446 6 26
470 15 15
138 3 24
145 12 1
243 4 6
454 3 26
260 2 12
146 7 10
10 4 10
55 2 6
329 0 16
90 3 9
27 12 12
307 11 20
470 9 28
157 10 14
204 9 4
48 8 13
456 0 18
401 14 28
291 9 3
485 8 10
459 1 27
203 5 27
355 13 4
263 3 1
317 2 12
30 11 27
402 6 3
420 6 10
237 15 22
158 3 28
153 0 10
176 4 10
18 3 17
158 6 5
112 16 20
185 8 21
494 14 3
55 2 17
175 13 13
450 8 26
6 3 9
195 10 24
170 6 4
282 6 23
349 13 2
488 3 9
331 3 23
246 13 17
275 7 27
320 6 28
341 3 19
224 12 24
241 12 28
35 12 15
205 5 16
311 16 11
213 0 22
45 7 2
327 10 9
387 16 1
491 2 8
215 3 10
308 16 10
357 10 27
109 14 9
318 8 26
95 14 19
150 8 8
11 5 5
481 15 5
234 14 4
206 5 6
324 6 22
149 8 1
115 7 15
310 3 3
174 16 1
238 3 17
221 13 8
231 8 5
108 10 25
270 1 25
499 9 27
289 16 21
334 7 13
394 1 1
127 12 1
66 16 20
77 4 25
334 12 7
51 13 17
109 16 4
15 9 13
445 16 27
300 2 15
109 7 7
352 12 6
132 14 19
219 6 19
157 16 6
238 16 8
88 15 12
364 6 17
297 0 28
341 3 2
350 5 2
459 15 19
232 1 26
22 16 1
368 15 17
405 14 13
166 13 17
192 0 18
356 8 1
496 1 23
365 10 15
30 5 6
352 12 10
68 11 9
191 7 12
395 12 4
17 4 20
2 4 21
428 6 2
374 0 25
341 2 23
54 1 11
410 3 15
35 13 0
48 7 7
172 8 11
23 11 15
79 15 24
106 2 7
34 2 12
328 2 23
215 7 13
390 12 23
212 1 10
147 12 12
200 16 16
158 11 19
455 2 4
96 14 11
120 11 0
123 15 2
228 13 9
148 4 9
96 2 25
52 11 24
265 9 12
484 0 20
250 8 3
409 15 13
24 10 2
450 16 8
362 8 12
222 7 28
37 7 15
123 3 1
301 9 2
462 15 18
308 15 21
70 8 19
415 1 5
338 4 28
0 14 19
37 14 24
207 12 4
58 4 26
301 6 3
412 5 21
238 6 12
210 3 2
480 16 1
449 8 4
332 2 12
66 12 28
255 9 21
339 10 11
276 8 25
207 12 10
245 12 27
374 10 8
329 7 10
20 5 9
374 9 23
33 16 0
499 6 10
223 15 16
251 7 10
491 7 10
143 1 7
215 5 3
143 14 23
131 5 13
104 3 12
158 9 14
307 0 26
296 6 25
180 16 15
336 4 21
65 4 5
141 9 23
394 16 22
446 5 5
130 15 25
36 7 20
124 9 22
122 16 22
303 9 14
150 6 15
292 11 16
100 4 10
322 10 24
425 7 15
421 12 14
57 4 22
224 15 20
298 1 14
29 4 6
301 11 18
242 11 9
143 13 28
406 0 3
92 1 6
359 5 26
43 2 2
480 13 14
9 2 7
289 2 1
110 7 12
97 14 3
403 3 14
257 7 14
207 14 15
152 11 2
107 1 9
91 15 8
51 6 28
141 7 17
175 3 0
258 16 8
298 6 26
340 13 28
83 9 20
100 4 17
333 2 14
415 3 9
420 5 5
159 11 8
119 13 21
427 15 25
233 3 8
91 16 23
87 0 22
286 7 19
325 2 23
301 15 16
155 3 5
353 0 6
403 12 4
71 11 17
115 16 16
25 2 9
133 8 4
45 10 19
239 2 18
224 11 4
257 12 25
92 8 26
70 9 1
380 14 0
54 4 9
173 6 28
9 7 1
94 12 3
81 6 24
473 12 2
425 10 24
302 0 17
206 1 16
180 15 23
132 0 20
392 8 16
118 0 20
420 14 4
217 12 15
330 15 16
91 16 27
478 12 14
320 8 21
10 14 5
425 14 18
64 12 11
81 6 1
130 10 24
96 6 10
10 14 0
126 15 22
47 9 2
277 11 7
399 6 8
52 5 3
190 7 19
34 8 19
265 0 17
17 9 26
205 1 21
88 5 21
122 0 21
162 1 25
176 4 6
208 1 24
198 16 5
227 5 7
349 7 24
371 0 27
390 14 18
309 3 10
439 9 1
10 5 26
64 13 18
402 6 2
216 2 24
229 11 19
472 8 22
411 4 6
180 2 9
54 2 18
149 3 16
14 4 15
285 0 10
371 11 23
316 12 26
340 9 16
270 6 26
332 13 8
414 15 13
63 12 23
300 4 13
167 10 25
19 16 8
140 2 16
230 15 6
411 15 15
43 3 2
55 13 4
450 5 16
233 2 6
200 4 14
21 12 11
364 16 27
152 9 12
396 8 2
271 2 0
210 6 12
39 16 20
284 1 16
140 11 4
46 8 15
469 0 6
370 13 2
306 13 8
329 2 22
61 7 27
189 1 7
159 5 25
173 4 14
116 6 20
164 8 1
396 2 12
482 6 19
454 4 5
425 3 1
85 10 14
261 0 16
498 14 2
456 2 23
23 3 28
76 1 26
261 10 20
90 8 27
395 5 27
206 7 16
27 6 7
476 16 4
306 4 21
210 13 2
151 6 21
280 5 27
437 13 14
201 9 8
496 2 2
498 1 28
164 14 11
296 3 12
192 2 3
400 8 22
115 2 19
303 3 25
494 16 18
225 2 28
275 16 27
332 8 19
153 16 4
388 8 20
356 13 25
166 14 12
348 8 16
93 8 11
297 12 7
330 15 12
333 14 15
337 8 1
354 13 15
421 7 27
94 0 18
470 0 11
391 1 21
408 9 19
428 3 8
29 1 18
102 6 15
216 3 14
484 12 0
270 9 12
7 2 1
30 12 21
428 0 22
372 4 22
201 12 21
414 16 1
23 13 3
468 10 5
463 8 22
406 2 14
40 1 25
248 3 13
446 3 18
444 5 28
33 0 26
23 1 18
300 5 11
46 4 27
149 7 27
259 9 0
206 16 19
313 5 15
256 2 26
206 2 15
422 5 0
475 6 27
307 5 10
389 0 23
70 4 6
266 3 5
480 14 16
338 14 7
12 1 10
102 10 14
252 9 10
66 2 18
288 4 0
112 12 17
202 7 13
430 7 21
233 1 25
237 15 3
459 11 22
130 14 27
480 12 7
196 12 15
322 14 23
230 14 26
212 6 20
281 13 20
229 4 4
211 5 23
140 3 4
41 12 15
361 14 22
179 4 15
299 9 24
58 15 15
293 9 13
8 12 2
408 15 3
130 9 12
224 7 0
269 12 0
113 12 9
307 16 23
469 6 10
484 3 17
134 0 15
356 2 19
479 0 5
313 11 26
367 1 14
336 16 6
328 9 27
453 11 5
217 9 25
125 2 13
178 3 19
114 16 12
473 15 11
322 9 4
411 4 11
88 15 14
229 16 24
113 14 17
204 11 4
47 3 14
433 8 0
279 9 22
462 3 20
321 13 12
313 13 14
183 2 10
154 9 12
43 2 27
5 8 23
171 0 2
203 6 7
164 0 26
376 1 14
455 7 0
244 0 3
480 3 6
152 1 9
188 4 12
131 3 27
422 14 22
47 3 9
33 12 4
260 5 20
485 9 0
279 9 14
180 12 4
356 12 26
324 13 28
428 7 22
389 6 28
23 10 7
131 4 22
241 15 16
238 5 28
461 5 17
53 8 12
120 15 6
406 14 5
399 3 19
52 3 1
136 11 18
442 9 2
401 10 15
185 9 22
38 2 7
71 7 25
335 9 10
462 6 9
385 10 11
257 10 2
426 13 24
31 7 18
494 10 1
326 10 4
423 6 25
70 2 6
85 6 0
93 15 25
44 0 28
394 14 5
75 9 2
82 11 15
3 3 16
417 6 26
147 12 2
11 3 4
6 13 6
220 1 0
294 9 22
381 11 6
289 2 8
107 16 26
215 14 12
97 6 25
327 6 22
165 16 8
24 16 7
216 4 6
33 16 7
450 3 4
369 7 4
483 8 13
339 3 6
64 7 7
215 15 2
11 2 2
216 7 26
9 2 9
102 3 23
26 12 23
276 15 25
308 4 0
392 2 1
255 6 20
272 6 23
55 3 19
84 15 12
152 13 5
384 0 6
123 13 18
431 5 9
288 8 26
344 5 19
428 16 27
210 6 21
340 10 25
67 3 13
261 1 16
120 1 5
254 13 13
65 2 13
301 8 23
417 3 13
280 3 16
68 0 5
95 12 15
499 10 4
197 6 16
384 10 8
356 4 8
301 6 17
171 6 22
173 0 24
119 11 6
482 16 4
322 14 15
408 7 0
360 1 28
494 7 24
189 8 24
452 4 19
355 10 2
264 2 18
414 5 18
282 7 28
153 9 6
342 1 0
101 13 24
27 12 5
168 16 19
498 12 21
402 4 19
105 8 22
38 8 15
348 12 15
42 14 9
379 10 11
484 16 21
268 9 18
93 10 10
368 15 9
80 6 21
409 12 2
446 1 27
175 10 8
416 2 18
333 8 28
52 14 14
429 4 11
309 13 0
325 7 2
128 9 17
137 6 5
298 8 22
155 5 4
143 1 27
17 6 1
331 7 13
95 7 18
35 8 23
434 13 14
122 0 16
209 1 24
227 7 13
270 13 12
344 3 26
490 16 0
139 2 13
111 15 26
383 14 22
77 16 16
12 1 10
303 5 28
62 5 3
413 12 21
495 6 22
45 12 13
330 1 27
312 16 7
62 11 25
301 1 14
44 16 4
33 2 5
453 15 26
439 0 27
123 5 11
101 5 27
464 15 14
156 13 17
427 6 5
207 7 22
26 13 5
334 10 28
397 2 5
192 2 15
148 11 1
124 5 23
69 3 18
178 15 26
415 13 12
171 11 11
232 14 23
114 5 14
365 0 11
19 14 2
101 4 12
56 9 0
189 3 2
364 16 21
28 5 24
173 9 22
321 2 9
435 12 3
372 13 25
83 12 16
121 3 26
424 8 17
288 13 6
231 3 21
464 11 28
3 5 0
319 3 15
177 11 17
183 12 19
95 5 6
305 10 13
262 13 0
436 14 4
175 13 16
227 14 16
254 9 18
194 0 19
37 5 2
260 7 16
199 7 22
169 11 13
44 4 6
405 6 14
338 12 6
127 10 0
35 14 13
218 0 27
51 4 18
151 10 5
188 4 10
263 0 1
446 11 4
69 0 19
231 12 9
42 7 26
307 1 24
335 7 4
57 9 14
300 1 11
259 5 2
341 16 10
403 10 25
199 0 7
123 9 17
212 3 6
377 5 20
494 15 25
71 0 28
273 0 10
260 14 17
484 15 5
287 9 9
39 7 19
98 8 18
99 1 22
20 9 15
131 15 0
279 5 0
148 13 24
463 15 26
226 16 10
361 7 14
351 3 16
102 4 3
208 9 0
70 9 22
423 14 18
225 11 8
368 5 25
12 2 0
77 2 10
466 3 4
65 2 17
266 0 15
469 8 10
359 15 21
450 11 3
130 10 10
212 1 25
485 10 2
429 11 15
456 3 4
213 7 9
463 0 19
193 8 3
98 4 15
223 15 13
117 13 3
255 14 26
140 6 22
102 11 1
311 2 26
69 8 9
201 4 5
435 7 17
39 1 3
428 13 19
218 5 6
258 6 27
11 13 19
457 4 2
258 9 8
270 11 19
70 9 16
142 6 2
12 8 24
47 7 15
437 4 2
476 10 11
277 10 2
387 6 1
365 9 16
414 9 0
316 14 13
43 2 1
446 12 0
451 4 0
157 6 19
229 7 11
405 12 26
274 3 22
481 5 5
405 15 2
377 5 2
56 2 4
401 5 6
477 7 16
253 12 5
94 9 3
27 1 8
163 5 25
326 10 8
98 8 22
378 4 23
414 4 10
98 6 1
88 14 26
290 3 14
402 10 14
205 10 9
466 16 3
110 16 16
188 12 4
85 4 12
456 2 14
100 0 22
358 16 23
89 14 7
233 0 21
81 8 20
483 8 6
417 8 23
192 4 1
485 9 18
422 6 11
329 13 27
416 5 12
96 10 22
104 10 0
245 13 21
47 5 20
415 13 9
42 14 26
463 14 2
387 16 0
155 11 23
458 6 3
337 1 4
146 2 10
68 6 5
41 3 26
399 16 10
449 0 27
362 9 25
448 9 2
25 1 27
260 9 13
136 10 22
333 13 17
375 14 23
62 1 16
375 4 0
266 0 6
442 7 15
241 6 16
156 13 15
54 3 9
215 12 7
226 15 10
372 10 6
106 16 20
29 0 15
107 8 18
372 15 0
89 0 1
350 3 16
22 14 1
61 3 10
265 15 9
332 13 8
284 0 4
135 9 16
12 15 12
132 2 6
305 14 5
215 15 6
165 16 0
78 10 26
8 14 8
326 4 22
432 6 25
423 7 24
63 15 0
235 6 22
274 1 10
29 12 23
377 3 11
317 14 11
245 15 7
466 16 24
419 6 22
255 3 5
438 3 19
121 4 23
67 2 24
459 11 18
287 13 19
43 1 27
303 4 0
270 3 4
111 11 1
384 2 26
198 11 10
99 8 9
402 11 17
403 11 2
265 13 17
293 13 4
1 12 8
139 8 13
358 10 3
140 5 16
407 6 14
482 14 3
459 14 17
55 4 26
116 15 10
483 2 4
284 14 28
114 14 18
475 7 14
399 6 19
277 10 0
219 12 18
219 10 1
50 6 3
200 0 7
306 0 28
409 0 16
236 14 1
132 6 9
146 14 24
187 12 3
54 5 5
310 6 7
392 1 7
336 15 27
94 1 7
412 13 17
170 10 14
281 3 11
116 5 3
445 5 27
118 13 11
300 5 22
436 8 0
80 4 26
423 8 1
313 14 17
370 13 28
372 6 2
11 0 22
264 1 8
211 8 25
432 2 1
183 0 22
231 3 8
349 5 12
254 13 12
115 9 9
15 6 3
252 8 10
11 4 9
250 9 20
99 4 0
159 3 7
268 13 15
261 8 2
479 5 27
468 9 5
181 6 6
359 3 10
496 6 2
420 15 23
381 5 16
372 7 2
441 11 14
301 2 18
354 9 19
125 10 20
304 6 5
9 10 19
278 6 22
293 14 8
171 10 24
481 13 22
371 15 9
11 6 28
421 8 26
61 3 4
453 13 25
157 10 15
455 10 1
50 3 28
46 3 14
340 5 23
366 8 28
274 1 5
447 11 6
278 15 14
34 1 1
172 3 13
359 9 27
325 11 28
299 15 8
474 1 24
253 8 19
84 11 27
450 12 26
225 16 17
310 3 18
139 15 2
439 2 27
480 0 11
365 10 14
65 1 19
295 2 9
173 8 20
430 7 0
13 7 1
400 13 21
236 1 0
498 3 27
273 5 25
369 3 16
218 7 20
441 4 12
368 7 28
421 0 26
233 15 24
449 5 17
334 0 10
245 13 18
235 15 23
82 13 28
473 14 1
8 3 6
207 12 26
126 12 20
4 11 25
236 12 19
490 5 7
82 10 18
139 13 3
484 15 11
122 16 8
224 0 28
253 8 14
273 2 23
133 12 7
299 11 22
442 8 27
444 14 22
432 4 4
68 15 21
375 5 7
185 7 10
481 1 26
6 12 20
480 15 26
110 6 11
127 5 2
103 16 11
137 8 11
393 6 1
71 9 2
340 0 28
156 14 11
105 2 4
54 14 3
40 7 27
456 5 4
496 12 27
11 0 17
402 4 17
496 10 17
118 10 20
28 1 10
170 0 8
102 3 8
280 8 12
91 6 3
17 3 24
0 0 25
490 5 6
215 15 4
317 10 7
446 1 0
121 13 14
193 5 18
149 13 2
20 15 26
196 5 21
305 6 16
462 7 16
221 4 12
299 2 16
475 10 10
474 16 8
171 3 5
236 4 20
462 10 27
15 0 17
331 0 19
218 13 10
334 3 5
105 11 16
274 11 0
434 5 24
52 8 14
247 0 24
180 8 18
33 7 4
156 2 4
475 1 2
331 3 12
143 5 14
158 7 25
375 11 7
38 13 0
182 5 17
344 12 15
381 12 9
25 4 5
354 12 0
374 13 25
308 10 12
436 7 8
322 14 13
124 8 20
177 8 22
262 0 22
211 14 16
382 0 7
43 8 17
92 2 24
177 11 25
140 3 10
128 4 15
235 2 19
440 3 11
304 15 13
224 0 10
372 14 1
287 13 28
325 11 7
418 14 25
25 9 9
169 10 5
342 4 19
351 5 10
274 5 19
165 2 20
54 0 28
315 12 9
228 1 16
172 9 25
198 13 14
149 12 17
453 6 22
363 10 26
79 7 13
493 4 24
116 14 24
6 13 21
275 6 8
96 11 19
273 10 15
438 5 2
241 14 26
10 9 21
335 3 16
57 11 19
152 11 28
97 15 26
385 0 5
333 7 23
474 4 17
439 8 6
120 0 18
0 10 3
357 15 6
327 9 2
347 2 25
153 4 6
79 8 26
163 0 28
58 3 23
156 0 23
400 4 24
220 2 2
266 11 23
358 15 2
283 8 1
316 6 16
369 9 9
256 9 10
108 16 22
121 3 15
476 2 5
356 4 25
83 3 12
389 1 11
224 0 16
120 1 21
224 11 15
90 3 25
247 14 18
6 15 16
364 4 12
486 12 20
96 1 19
231 8 7
299 0 20
365 1 18
20 10 1
21 9 3
305 9 25
243 16 11
139 8 8
221 7 26
360 10 3
481 12 4
185 1 5
285 11 2
65 10 1
395 5 15
97 11 11
266 4 24
358 3 19
41 7 15
375 16 21
74 1 19
244 10 1
7 6 22
249 12 6
380 2 8
403 5 18
151 7 28
304 8 0
176 1 1
136 11 3
356 10 12
380 10 0
121 15 26
274 3 14
3 7 4
128 10 4
430 11 22
252 0 5
470 14 17
290 13 7
200 3 0
215 13 14
120 7 14
345 7 23
161 2 27
132 8 5
328 5 27
326 15 16
1 13 20
8 8 13
258 9 0
215 4 17
23 4 10
437 15 17
208 0 9
451 5 24
499 10 23
331 12 18
456 7 6
225 2 27
255 1 0
318 5 7
198 12 4
344 15 14
93 3 11
394 4 16
253 13 16
75 14 17
334 5 0
72 1 20
364 16 23
25 14 20
339 15 18
362 8 0
52 8 28
197 0 16
40 16 20
77 10 8
65 16 15
25 12 14
92 8 20
50 7 28
148 5 1
309 13 21
425 2 6
3 2 16
434 8 13
69 12 17
56 6 10
407 8 21
408 8 0
499 7 3
192 11 7
316 16 12
15 4 5
304 15 7
236 6 12
280 16 4
106 4 19
335 11 12
472 1 4
52 4 27
45 10 7
55 7 8
297 5 1
454 14 17
416 7 28
15 2 11
16 5 9
374 6 10
408 6 19
109 14 7
334 7 25
483 11 11
65 8 16
42 16 20
291 15 1
422 10 28
233 8 22
34 0 8
43 7 23
290 13 3
136 16 1
432 16 5
476 12 13
424 3 15
157 14 10
24 11 18
300 2 22
59 5 26
28 9 0
452 3 2
374 4 26
108 4 2
233 3 9
284 2 17
147 3 4
403 9 2
80 2 0
393 5 6
224 10 20
382 1 15
10 4 7
439 8 1
184 6 11
315 13 10
339 7 9
369 16 11
419 12 0
301 3 17
252 9 26
473 1 17
364 1 20
394 7 21
494 8 9
154 12 24
134 13 6
314 4 13
330 10 5
211 1 9
201 11 13
368 3 26
464 5 1
42 2 16
359 4 14
293 5 26
254 0 11
313 11 25
379 11 18
378 16 4
138 10 3
244 6 28
335 11 21
341 10 3
376 12 23
318 6 11
265 10 16
59 11 24
277 7 26
315 11 10
398 10 24
385 13 24
240 6 14
211 11 26
340 8 8
394 13 15
66 0 7
115 14 22
235 8 5
45 8 10
88 5 19
18 2 4
19 0 22
351 12 17
334 14 28
290 0 11
36 5 15
291 14 26
31 8 27
437 9 3
393 14 23
306 16 12
411 2 14
302 5 17
61 12 7
375 15 13
364 9 10
0 9 3
365 3 1
240 1 7
161 6 21
476 12 19
106 6 18
47 14 19
47 7 11
266 12 12
205 4 14
218 12 7
160 14 13
82 9 20
384 3 25
54 13 12
341 1 13
44 9 10
498 10 2
159 0 22
33 3 27
452 0 17
301 7 5
417 10 2
91 16 17
147 6 5
5 16 20
372 16 12
444 6 21
123 3 3
152 8 28
488 11 6
180 14 18
178 11 8
434 12 17
387 0 10
252 16 0
18 6 23
209 15 27
297 1 22
126 8 11
351 15 1
108 16 0
58 14 19
311 6 28
147 7 11
225 5 24
166 1 2
345 11 20
333 6 11
45 12 2
452 5 20
435 5 24
354 0 22
341 10 27
122 13 6
62 15 27
130 9 18
447 7 3
19 2 14
12 3 24
81 7 14
399 15 20
72 6 0
385 6 22
496 13 4
87 8 6
39 8 10
287 13 25
176 9 24
163 14 24
274 9 11
31 3 14
375 16 13
109 4 5
358 3 9
281 5 4
218 2 15
444 16 14
86 16 24
212 5 5
373 2 25
232 3 17
397 15 28
389 12 10
391 9 27
130 13 23
488 13 20
174 10 21
268 10 22
361 15 14
446 0 27
115 11 28
371 11 20
130 6 3
396 6 20
389 6 19
40 5 10
102 7 3
243 9 21
477 16 5
257 0 10
213 12 23
254 8 15
417 3 20
442 9 5
185 2 0
324 7 19
58 13 18
27 12 27
262 6 7
401 1 9
404 12 8
100 12 24
295 8 18
169 2 17
222 14 2
32 0 19
433 11 9
229 6 14
257 11 23
137 15 20
306 1 28
113 15 26
480 4 22
8 10 24
212 12 23
116 14 8
456 10 19
341 5 21
422 0 18
51 5 15
13 10 19
138 2 12
392 2 22
142 12 21
40 4 2
353 5 11
227 10 9
418 13 3
358 16 12
124 4 11
444 5 13
83 10 11
234 2 26
392 10 14
135 13 14
451 9 28
237 13 12
312 5 2
303 15 8
195 12 7
244 7 0
9 12 8
255 12 12
236 7 12
59 9 3
329 3 25
52 3 10
270 12 25
200 5 21
377 1 12
156 8 11
27 2 1
61 9 25
265 0 20
22 4 3
477 4 6
260 16 23
101 14 3
38 13 15
360 2 24
121 7 25
380 0 18
289 0 14
485 14 26
368 7 15
74 11 11
314 13 18
435 10 25
213 10 16
339 3 23
82 2 5
366 3 8
170 7 9
353 8 4
93 14 12
287 2 14
32 8 8
489 13 25
97 5 10
277 16 21
86 5 12
71 8 22
72 11 7
239 5 28
263 3 5
158 7 6
217 8 20
433 6 25
35 2 4
378 10 2
337 0 24
127 14 1
15 16 17
485 10 15
139 15 16
345 12 0
321 14 7
418 4 6
61 15 19
317 15 14
406 14 16
290 0 26
402 12 21
354 10 14
171 1 22
331 6 21
121 11 6
1 14 27
306 4 23
465 9 27
331 1 8
441 2 6
433 14 24
291 15 13
108 1 4
265 3 15
239 16 23
402 15 20
377 14 23
313 13 4
429 9 13
69 2 25
257 13 3
455 16 22
436 11 17
452 13 25
372 16 27
281 0 26
462 2 22
139 2 2
269 3 13
305 3 12
48 16 8
414 15 3
183 0 8
408 16 14
483 16 13
302 11 4
53 5 23
364 2 14
13 5 16
53 4 3
278 14 17
447 12 27
409 14 20
349 0 11
361 13 9
191 4 4
84 15 23
156 11 7
192 7 5
57 8 6
104 14 2
254 14 22
343 10 26
338 15 25
4 14 4
113 7 15
408 8 22
296 7 28
12 11 8
397 8 6
493 6 2
114 3 16
348 5 13
28 11 15
135 3 15
405 13 13
446 8 18
318 6 10
18 5 24
126 1 21
14 6 23
371 10 16
1 6 20
364 1 16
34 8 9
5 0 21
96 10 4
109 1 22
371 15 0
149 9 15
140 2 1
233 13 25
324 14 16
211 2 22
56 3 14
27 16 6
68 2 27
118 12 9
203 2 5
275 8 19
40 4 19
299 1 6
454 12 22
464 12 9
493 12 18
21 14 23
257 7 19
359 13 6
499 4 15
129 12 0
58 3 20
292 6 6
393 8 2
355 11 9
102 13 26
144 5 25
181 12 14
463 11 27
239 14 9
121 5 19
148 9 4
179 4 21
491 13 1
47 7 14
456 6 12
410 5 22
272 9 25
31 13 14
200 7 26
442 0 5
255 1 7
486 6 20
471 5 6
397 0 26
36 4 1
86 13 11
143 16 2
351 9 6
335 12 8
413 16 9
187 14 15
180 13 16
130 9 14
123 4 8
464 13 7
264 9 16
223 11 17
121 7 25
74 15 19
372 0 21
381 11 17
334 11 15
441 3 20
115 0 16
301 0 9
333 5 5
469 3 10
18 12 10
277 9 20
118 11 9
203 13 9
377 14 27
99 12 1
79 5 23
79 11 28
187 14 11
288 9 15
217 6 26
439 11 2
49 14 11
448 16 15
346 14 25
150 12 0
108 9 9
104 6 27
142 10 9
265 15 15
175 12 12
43 15 27
11 2 19
287 15 25
326 10 2
279 10 0
367 15 12
252 0 2
396 15 6
416 8 10
61 13 18
430 2 0
397 9 24
276 7 11
311 8 5
104 11 23
36 16 16
310 16 14
89 4 27
489 12 14
112 12 0
421 14 4
103 8 12
495 16 17
213 4 16
460 14 25
67 0 18
136 8 15
249 0 5
266 8 17
127 12 12
63 9 14
486 13 2
283 14 7
415 2 14
248 1 20
365 9 6
352 1 22
342 16 25
60 15 12
32 10 13
473 10 7
334 7 4
11 0 7
105 0 10
385 8 0
393 11 11
156 11 10
352 6 26
2 1 18
430 15 4
180 6 26
58 1 11
314 1 26
497 5 24
402 16 13
13 1 14
26 2 11
121 11 0
491 13 18
134 1 26
314 1 17
114 12 19
349 13 26
417 9 21
199 2 18
316 15 21
235 6 9
474 4 19
183 0 9
392 11 19
319 9 21
102 9 14
394 14 13
385 6 22
486 12 26
395 5 23
135 1 10
405 5 8
340 13 6
79 3 27
327 12 7
404 16 18
480 0 25
360 14 13
5 13 4
160 2 12
231 8 11
189 7 12
91 7 13
183 2 3
163 4 1
488 10 2
361 7 25
397 1 2
343 15 1
5 0 14
91 16 6
79 10 26
378 3 13
84 12 6
20 1 9
157 2 2
462 7 24
258 15 3
395 6 24
82 12 3
227 2 27
214 9 24
470 13 27
144 15 0
364 3 28
291 14 18
479 15 8
190 15 21
71 10 21
295 8 9
200 0 9
361 4 27
24 1 24
51 16 4
387 1 0
63 1 16
201 6 13
230 7 27
434 14 0
29 16 13
489 8 12
111 6 19
294 13 2
453 8 20
159 8 13
71 3 25
275 6 16
285 7 22
396 11 13
219 8 17
476 5 24
426 4 11
210 0 12
206 11 25
250 7 26
167 13 17
160 5 17
382 13 26
186 2 14
355 15 0
484 9 9
86 14 13
267 12 3
377 0 11
305 1 5
481 2 26
436 8 10
201 10 22
258 15 21
479 6 16
473 16 8
319 2 16
460 8 24
414 1 12
184 7 7
68 6 26
409 12 6
256 11 28
22 15 3
431 12 21
7 5 0
277 13 19
430 14 7
49 15 16
13 7 12
210 14 3
247 12 6
288 9 28
390 16 9
68 15 22
221 3 18
346 1 0
103 15 2
402 3 14
240 5 12
491 15 8
71 10 15
428 1 14
50 15 10
172 1 19
86 8 21
43 2 21
335 6 21
335 15 1
154 14 14
413 13 28
175 4 21
438 1 14
315 14 6
405 6 1
3 3 5
259 5 12
156 1 25
292 1 21
338 12 10
218 14 5
315 3 4
259 15 13
150 13 13
78 11 0
439 1 22
382 1 6
391 4 11
493 7 15
164 0 1
358 5 12
314 15 9
497 8 15
297 10 26
415 11 8
328 6 7
184 3 24
40 12 13
432 8 1
287 15 1
403 1 11
196 1 25
429 4 19
221 14 13
461 3 15
413 6 15
229 16 28
121 5 6
440 9 17
181 8 5
195 4 15
69 15 26
330 14 11
395 3 24
84 14 19
57 11 26
367 0 11
422 15 23
181 9 8
46 16 13
9 11 13
254 0 24
12 8 13
352 2 4
195 6 9
433 9 2
33 6 1
160 0 21
78 16 18
77 6 27
345 16 25
14 9 18
106 3 2
439 12 24
101 9 20
315 5 7
417 2 7
89 4 22
387 13 23
444 2 26
153 13 14
396 13 25
490 1 13
281 1 2
419 12 0
135 8 25
108 8 6
486 12 17
241 1 21
178 16 20
140 12 28
72 6 13
490 6 26
311 5 16
370 5 1
378 8 10
391 5 9
409 16 20
444 8 5
224 11 28
325 13 25
252 2 9
181 4 8
112 7 17
284 4 9
459 13 16
392 15 11
488 0 0
466 3 0
84 1 4
479 6 28
204 1 1
84 9 20
92 16 22
247 12 9
423 13 15
148 13 17
20 16 19
451 12 9
366 5 7
46 16 16
273 1 1
255 2 10
395 13 26
416 16 0
125 16 1
382 15 0
80 15 19
403 0 16
127 0 8
380 16 14
488 3 17
31 4 3
227 11 24
33 14 5
93 11 22
38 14 11
62 5 14
82 13 1
313 15 15
155 6 10
488 13 14
55 15 2
297 4 20
429 7 6
38 15 15
110 6 15
232 10 9
314 11 4
134 10 20
429 5 1
38 16 8
384 5 7
1 4 21
341 9 13
482 0 11
147 11 3
339 9 17
442 15 9
313 1 28
54 7 15
470 10 2
144 7 12
207 3 19
436 7 15
261 12 22
187 4 7
381 13 18
224 2 10
279 14 12
271 12 28
397 2 15
412 10 27
244 0 5
107 14 0
283 6 5
390 0 10
476 2 17
290 12 28
233 14 0
347 3 14
164 7 16
53 15 3
262 7 23
117 5 2
381 15 28
37 0 10
336 3 9
429 10 19
445 0 3
391 5 7
93 5 12
175 7 27
295 6 6
108 4 23
428 6 20
411 11 28
218 2 14
128 16 24
317 3 13
455 0 5
368 1 16
383 11 14
391 5 21
47 11 15
145 14 3
72 5 27
387 13 25
177 2 28
129 16 7
71 4 0
241 14 18
311 13 28
398 6 27
28 5 3
208 9 17
363 14 6
160 9 10
297 11 5
1 16 4
388 10 10
288 1 2
16 11 11
101 9 7
104 0 2
434 15 18
217 8 2
484 1 20
459 11 25
60 9 12
34 6 4
154 10 3
106 12 22
314 16 10
159 11 0
483 8 22
255 0 1
338 13 25
336 11 9
495 9 13
8 8 3
193 9 18
307 1 17
361 12 17
400 14 19
225 9 15
255 0 9
462 5 7
497 3 22
309 0 21
401 16 1
60 4 7
35 7 25
64 13 17
48 13 15
183 5 1
190 5 14
201 6 4
482 15 4
0 11 2
218 5 10
354 13 2
278 14 3
60 14 8
305 4 24
327 11 17
161 15 23
399 0 7
111 3 17
319 15 15
226 15 23
162 4 24
110 0 12
343 12 19
420 2 3
486 9 23
444 7 6
137 15 4
330 13 24
24 13 28
155 7 18
29 8 9
444 7 0
134 5 28
262 11 3
322 11 8
162 2 20
348 14 14
287 9 7
380 13 10
489 15 14
389 9 21
458 0 3
267 11 3
430 11 13
115 13 7
441 1 2
345 13 12
272 14 9
405 11 22
75 4 11
437 16 22
17 5 11
103 3 1
215 11 22
228 2 3
405 15 16
297 4 19
402 11 26
226 10 21
47 0 14
307 5 20
228 1 20
246 5 20
345 16 8
384 16 17
346 10 3
460 15 10
482 9 9
269 1 15
258 14 18
237 15 19
390 12 0
350 11 28
81 7 17
66 0 5
255 3 19
317 8 2
160 4 28
32 1 8
195 2 28
308 12 22
489 6 22
393 15 25
429 13 8
199 5 11
65 8 15
476 3 17
326 12 12
267 11 28
371 2 22
188 10 5
391 4 25
138 3 1
365 4 19
111 2 20
343 8 28
10 5 10
444 9 2
230 2 19
74 6 28
285 6 6
473 11 14
11 3 11
412 4 6
377 3 17
123 8 23
123 10 1
212 9 27
73 5 15
365 8 0
279 9 27
453 11 3
451 10 22
79 6 7
238 8 19
126 10 0
493 4 8
410 9 10
190 16 15
318 8 17
155 10 28
75 13 9
318 1 17
46 16 10
261 1 10
475 10 5
3 15 15
494 4 7
250 15 12
98 8 9
235 8 15
451 4 15
395 0 28
309 5 27
420 0 16
347 16 3
248 0 25
252 8 10
409 4 15
455 16 8
209 8 27
217 0 14
202 8 15
390 8 5
218 6 5
450 16 13
375 15 17
219 6 8
196 1 13
7 2 12
450 8 5
86 16 18
10 10 11
376 14 23
13 1 3
388 9 3
329 9 20
222 8 21
29 13 21
179 11 10
383 9 28
232 5 7
428 11 27
70 8 4
267 11 7
154 6 16
156 8 5
62 3 4
32 15 13
270 2 17
498 16 15
337 8 14
462 9 16
137 11 17
147 7 15
169 15 19
30 6 10
96 11 4
60 12 17
263 7 4
179 13 22
121 8 4
314 6 18
404 7 15
172 3 11
265 13 4
273 12 25
492 6 1
414 8 22
31 11 23
19 2 4
96 6 12
226 10 2
154 12 15
116 13 13
335 12 5
229 14 24
402 5 8
390 5 27
492 15 11
88 10 14
109 6 14
64 7 2
401 5 3
484 3 5
301 13 14
183 5 18
276 4 28
351 5 18
387 14 7
399 3 9
258 5 25
478 13 8
24 15 15
314 1 23
119 0 24
268 13 18
368 9 23
198 2 6
125 12 22
499 14 1
80 11 18
34 14 27
264 2 20
133 13 23
52 3 24
455 10 3
94 0 10
276 9 18
453 13 12
268 2 11
142 14 9
62 12 18
337 7 17
383 11 7
390 8 12
341 3 11
143 6 4
107 1 28
13 6 18
179 5 8
82 11 24
351 16 25
152 1 2
296 3 10
497 15 21
460 15 12
145 9 15
214 10 4
443 5 28
490 8 13
251 14 22
483 12 20
311 8 11
358 12 19
24 16 12
2 2 4
499 1 2
455 5 20
142 15 17
65 8 22
217 10 21
413 4 0
89 5 1
391 12 26
153 0 3
334 9 5
240 14 14
14 6 11
358 0 12
443 4 0
6 0 2
55 15 15
318 3 2
223 5 0
334 6 15
496 14 12
329 15 15
239 14 1
470 7 7
216 15 14
381 10 12
454 16 2
29 16 6
176 7 15
418 11 6
2 1 3
34 2 24
265 1 2
451 10 8
476 10 12
216 9 3
418 0 18
112 8 9
425 15 0
478 6 3
299 16 24
390 16 27
396 16 2
82 8 4
395 16 5
394 13 2
440 5 12
201 5 25
58 0 16
118 3 10
179 0 0
143 2 9
108 2 4
316 10 25
114 9 3
150 16 0
268 13 19
205 6 18
494 11 16
313 4 2
307 4 4
357 6 0
206 7 15
276 1 6
395 8 14
247 13 17
229 13 4
2 4 10
321 2 21
63 5 20
381 15 12
27 16 16
301 13 9
13 11 17
151 14 8
243 3 0
293 0 11
461 6 25
76 4 10
362 8 14
304 16 16
386 7 4
230 4 22
360 13 23
323 1 15
261 9 9
23 9 23
311 15 12
155 2 2
73 11 18
118 14 15
154 14 3
13 12 22
340 7 20
434 10 8
50 6 23
406 12 7
106 7 9
279 10 9
128 0 2
423 7 23
3 1 21
333 16 4
22 7 1
200 4 24
120 12 6
281 3 5
246 15 12
432 16 11
24 2 7
53 3 5
76 1 14
452 6 15
409 5 0
242 13 23
213 4 17
1 6 16
477 9 18
384 4 6
151 15 16
449 14 19
273 1 4
434 12 19
295 14 22
351 10 11
337 2 0
377 8 9
477 15 27
349 4 6
133 2 26
40 5 26
171 4 8
40 3 25
371 12 21
310 6 26
320 0 18
88 7 7
441 16 17
69 16 5
308 6 15
445 5 7
308 16 21
301 9 19
248 13 13
196 7 17
358 4 22
429 16 2
373 14 17
160 7 17
282 7 2
88 10 6
437 5 3
12 10 20
227 8 16
152 8 19
178 3 10
288 10 18
75 5 17
454 9 21
498 12 27
313 3 2
314 8 26
280 12 15
151 11 6
148 6 0
118 8 11
318 7 8
350 11 28
348 5 25
340 13 4
403 2 25
342 6 5
386 10 21
293 3 18
478 16 24
106 7 25
272 8 20
286 6 9
360 8 8
460 7 26
488 2 4
6 0 8
6 7 14
6 1 4
495 2 0
492 0 24
83 6 11
437 16 25
207 13 27
40 9 28
309 4 0
375 0 2
429 0 18
20 13 2
116 2 9
32 11 11
391 7 17
199 7 21
341 1 17
108 16 6
149 12 13
313 10 27
270 11 24
456 10 3
216 11 9
221 15 4
464 8 3
194 3 12
454 9 23
129 10 19
453 13 17
36 4 0
331 3 26
482 7 7
482 6 17
267 15 10
337 15 25
254 3 19
141 11 22
404 0 4
404 1 9
477 14 16
314 8 28
189 3 21
364 7 14
1 3 8
18 5 1
227 16 19
74 9 6
79 16 7
336 16 1
164 3 0
450 5 6
491 9 20
258 11 24
454 11 20
316 7 4
88 11 13
371 5 7
381 4 18
54 12 24
205 14 1
478 11 22
110 0 16
205 13 23
55 9 11
339 12 26
199 3 25
269 6 28
334 14 8
341 10 22
105 4 20
89 14 16
385 15 19
66 5 21
343 0 7
327 11 10
394 10 14
307 12 28
91 11 2
167 11 17
228 5 23
239 10 20
155 5 15
1 13 26
134 11 22
57 0 16
335 4 4
478 15 4
149 11 16
33 14 6
355 3 4
425 13 17
216 11 21
59 6 5
136 14 14
286 14 26
74 11 14
376 10 17
349 2 11
309 13 13
185 1 19
298 9 12
261 9 25
388 7 4
24 14 15
389 2 21
59 4 0
64 5 21
216 15 25
157 2 2
426 9 27
306 2 22
129 15 17
463 5 12
290 2 13
340 9 16
137 11 4
461 15 27
293 16 12
407 4 25
418 12 8
14 16 13
121 12 17
459 11 28
246 9 6
169 15 22
13 7 1
416 15 17
399 15 21
369 15 21
336 7 3
262 6 28
395 8 8
231 12 27
289 11 22
338 5 8
411 8 6
334 9 24
380 16 12
361 7 6
368 12 20
92 15 22
478 9 24
288 2 24
267 5 8
397 16 25
349 1 0
292 1 25
29 6 13
362 5 24
216 3 6
226 15 17
165 1 15
102 9 19
9 12 18
84 14 19
262 14 3
132 9 1
86 13 18
100 2 10
396 9 20
69 4 3
351 12 22
226 4 15
181 13 12
458 8 14
302 6 6
393 2 23
322 4 21
178 9 3
169 7 25
42 4 7
132 8 12
488 16 3
440 5 19
75 7 5
138 1 25
405 8 16
181 3 26
474 10 22
470 1 28
255 6 9
191 8 2
468 4 9
418 12 25
313 0 24
167 4 26
272 3 11
114 10 3
127 3 2
144 7 2
7 6 27
439 0 10
205 2 12
152 1 17
86 5 19
396 3 26
402 2 10
106 6 24
419 12 10
287 1 27
427 3 1
110 2 21
471 11 9
177 7 16
72 11 22
450 14 16
295 5 12
246 14 22
330 5 25
205 5 11
290 5 24
252 4 18
238 1 12
497 4 5
83 15 21
465 1 28
390 13 11
63 11 3
29 13 24
35 13 5
180 5 17
423 6 9
472 1 6
411 13 1
483 10 5
69 9 8
17 8 9
24 2 6
83 1 28
204 4 2
197 0 5
98 8 17
309 15 10
205 11 15
52 13 23
50 13 25
424 0 25
91 9 24
238 15 8
101 6 23
490 13 26
413 16 6
435 4 28
302 15 27
9 11 10
110 15 18
432 11 6
349 4 6
302 13 28
486 9 27
403 6 18
140 4 8
173 13 22
103 0 19
491 5 11
201 4 16
83 12 21
3 12 3
481 9 28
184 7 13
128 11 21
295 12 0
422 1 9
303 9 11
283 8 5
280 16 19
226 2 1
184 8 5
475 6 9
389 5 7
358 14 23
223 7 4
179 0 21
363 7 18
391 7 17
180 1 3
368 3 9
199 13 4
294 7 25
373 14 0
243 16 18
46 8 2
481 13 10
429 8 18
336 1 14
311 4 19
227 14 22
208 2 28
164 1 7
424 15 25
231 2 14
124 4 11
260 4 6
272 4 17
203 1 12
207 16 24
31 13 28
479 0 17
475 10 9
394 3 13
6 11 10
320 10 18
275 7 3
138 16 11
170 13 4
187 10 12
430 11 15
76 8 1
215 13 19
132 1 8
360 2 14
96 2 17
136 13 20
171 7 8
389 9 14
281 1 14
253 1 3
116 8 3
5 1 25
336 0 25
361 4 20
373 2 25
309 13 4
229 16 13
308 4 0
223 7 14
63 8 26
375 0 11
465 2 13
265 2 24
317 11 26
376 10 25
151 6 0
301 2 6
271 11 19
380 16 14
211 12 23
86 1 26
114 11 2
315 16 3
55 10 23
470 2 12
233 1 17
336 15 2
128 14 25
112 10 8
291 6 16
460 2 10
358 6 18
36 6 2
315 0 12
0 13 4
286 7 26
461 3 26
46 15 22
14 6 20
200 0 23
433 10 5
439 11 26
129 9 12
220 16 21
425 14 25
313 15 1
212 1 19
397 9 23
197 3 14
293 1 28
492 6 24
26 4 5
330 4 25
293 1 1
355 10 14
491 14 5
469 1 17
434 9 11
169 8 14
96 16 3
439 3 24
390 7 28
115 14 22
438 14 18
32 4 25
310 6 12
120 3 3
25 10 14
370 8 7
61 14 17
128 10 22
466 1 11
381 5 25
182 5 5
46 16 2
160 16 7
63 12 6
61 8 24
365 16 6
80 10 22
317 9 3
451 16 26
25 7 6
316 6 17
263 3 20
105 6 18
285 0 27
230 11 10
81 2 18
395 16 21
428 16 22
141 5 22
42 14 20
430 4 4
274 2 14
130 1 6
12 13 4
310 5 28
126 2 13
145 10 0
351 3 24
262 13 8
352 2 0
238 14 16
241 15 15
58 3 8
466 4 14
376 5 20
106 13 11
198 14 12
180 5 4
388 9 18
416 5 2
21 2 11
35 4 20
260 2 6
295 9 5
480 1 13
330 1 24
79 5 0
453 4 5
464 15 9
204 12 20
91 5 14
132 3 19
192 13 11
349 12 11
424 0 4
327 3 21
295 16 13
454 10 9
186 15 19
227 1 26
349 14 0
102 12 12
251 12 8
384 10 27
245 4 11
482 0 20
183 3 5
298 16 27
399 16 25
386 16 3
362 16 18
194 2 19
442 3 20
88 3 24
11 3 28
409 14 20
134 6 19
343 15 7
448 15 23
429 11 18
402 3 12
346 16 28
1 9 9
240 5 16
497 6 0
137 2 13
160 4 19
275 16 23
412 13 11
49 13 3
165 14 19
389 12 12
307 1 10
423 7 16
338 4 16
374 14 16
337 9 12
448 7 16
125 3 3
206 11 13
382 1 5
96 13 27
393 14 17
296 1 10
317 3 5
259 9 18
200 14 19
157 3 4
74 9 24
314 0 23
347 14 15
46 3 3
384 10 0
460 6 6
151 1 14
217 3 5
205 12 7
314 15 25
31 13 19
100 3 20
471 0 16
363 12 22
76 7 27
301 7 21
412 4 9
497 11 21
437 15 13
472 12 19
341 4 0
474 2 25
471 2 6
218 4 14
400 13 10
303 3 17
224 13 27
312 11 28
413 0 14
129 13 8
436 7 27
162 7 25
96 10 28
365 5 25
389 3 2
37 16 14
0 4 26
412 4 25
51 1 21
236 3 10
215 16 9
442 2 26
81 4 17
490 6 3
446 9 26
357 11 15
392 9 8
495 2 22
230 4 13
135 4 23
85 3 3
135 9 11
179 11 14
429 9 9
217 2 15
38 10 18
246 5 9
385 12 6
451 14 20
280 16 16
161 0 11
286 7 18
302 15 6
118 2 25
283 8 17
250 15 11
288 5 10
330 13 15
253 3 13
323 6 9
434 16 27
287 16 27
465 10 10
465 16 0
206 11 14
77 9 0
475 15 18
499 15 0
58 14 9
75 7 25
115 11 21
284 3 8
422 10 22
12 5 12
186 6 25
439 8 12
86 8 12
196 7 14
254 16 26
102 9 1
19 10 10
179 5 11
157 5 27
328 2 19
359 15 23
288 10 13
10 2 16
355 5 28
358 8 13
51 9 17
61 14 23
75 3 23
261 8 13
185 3 24
432 9 13
208 4 21
152 10 27
442 0 15
362 3 0
264 14 9
498 10 14
215 13 1
209 1 14
22 0 10
190 12 22
452 3 12
112 15 25
388 6 19
28 13 19
38 16 20
294 10 0
96 12 13
227 2 3
437 10 2
160 11 9
360 7 27
143 0 23
6 13 19
439 5 9
200 6 24
19 0 12
16 0 27
255 10 22
304 12 14
220 12 26
60 13 25
133 1 20
382 12 24
18 4 4
108 12 5
71 4 20
137 16 25
114 16 1
158 2 21
445 16 19
60 5 24
232 1 14
495 4 20
121 1 27
418 6 11
217 0 8
232 7 26
278 8 11
394 2 0
224 2 20
425 4 12
93 6 28
493 3 8
169 8 4
175 5 25
22 10 19
439 3 26
287 3 13
243 1 15
82 0 27
407 9 12
225 14 6
366 16 28
122 15 3
78 16 3
255 3 25
45 0 18
233 8 13
108 12 13
282 14 2
219 6 24
45 10 15
243 4 5
491 4 11
378 7 11
289 12 5
429 1 25
58 4 17
265 6 21
155 4 22
404 8 11
11 12 11
462 0 17
43 8 15
349 3 1
427 4 18
270 10 3
0 9 27
356 5 19
283 5 24
439 6 3
200 13 14
37 13 15
417 6 20
377 1 1
494 0 18
272 4 17
165 10 13
168 9 27
144 16 6
178 15 10
356 15 16
282 15 26
17 4 23
46 2 14
13 13 0
35 12 8
110 0 14
79 10 4
177 16 10
448 8 25
414 15 24
417 4 10
441 7 2
308 3 27
263 10 22
56 5 23
384 4 23
337 11 25
402 9 23
370 7 8
228 13 25
10 9 4
184 15 11
106 4 18
163 3 28
185 10 1
382 15 4
320 15 12
400 2 24
336 11 9
261 6 5
353 0 3
166 9 7
303 15 26
163 1 23
80 13 14
448 5 0
93 16 3
488 16 11
281 13 9
432 12 17
408 11 0
84 14 8
108 16 27
217 10 6
172 6 2
168 0 22
250 10 19
482 16 2
489 5 2
48 16 15
32 14 17
447 15 28
57 5 27
21 3 8
283 4 12
57 5 28
205 7 25
459 7 17
464 14 25
466 15 13
356 16 9
208 1 21
148 16 22
18 16 20
305 5 10
70 0 3
88 3 15
42 7 2
374 1 7
244 1 2
211 0 7
404 10 18
93 1 25
230 15 19
32 11 5
396 13 24
207 14 28
337 10 21
74 2 1
143 12 21
413 0 10
45 0 20
25 14 0
364 1 18
374 3 15
114 16 14
495 11 15
419 1 27
171 8 14
436 14 22
326 0 9
219 11 13
478 11 21
270 2 13
86 9 19
196 2 9
386 10 7
116 0 26
444 13 19
147 14 28
398 14 24
112 11 15
298 2 22
402 13 5
275 16 3
460 3 15
131 7 10
385 4 16
12 1 21
14 0 3
181 16 22
263 10 25
364 16 18
290 12 14
168 6 17
5 11 13
455 13 20
278 6 2
427 15 13
296 1 14
137 15 26
64 12 13
414 1 11
367 10 12
399 4 16
399 1 3
198 11 18
460 13 10
211 2 5
467 14 22
156 3 15
216 2 17
378 1 24
239 6 12
232 13 15
461 11 6
42 16 15
417 5 12
227 1 24
442 11 16
131 4 24
107 7 16
229 6 3
214 8 10
168 0 16
470 2 11
408 7 4
499 2 2
483 8 0
243 16 23
21 1 16
461 3 17
479 0 2
131 2 10
116 8 21
471 7 18
259 14 6
209 3 22
22 6 24
46 7 26
15 14 5
79 2 20
367 9 12
301 16 25
223 6 26
188 0 2
459 15 3
343 1 2
304 11 24
287 4 22
25 6 3
179 5 19
51 14 0
188 11 25
387 11 18
347 0 26
222 13 3
60 2 12
329 9 28
75 14 6
342 14 24
154 3 4
479 14 3
416 8 12
391 9 1
468 8 5
203 11 6
440 6 26
146 15 5
479 8 15
104 13 23
166 4 25
106 8 23
197 9 6
348 2 9
59 16 23
37 8 17
434 6 16
184 5 1
36 16 14
292 1 23
292 5 28
113 12 25
56 15 4
209 14 4
493 3 4
329 3 10
488 8 3
491 10 27
323 7 2
145 8 4
63 4 19
108 2 7
68 14 6
258 6 9
385 6 17
389 2 23
442 10 17
331 13 23
38 4 17
91 6 12
153 7 23
498 0 14
12 5 27
360 6 5
354 8 6
8 10 21
246 16 13
120 1 1
369 10 18
368 2 17
254 11 11
55 5 5
195 5 11
462 9 26
388 11 28
483 10 15
422 3 17
238 6 20
439 2 11
13 6 2
314 12 7
205 5 6
397 13 10
54 13 3
458 12 25
74 8 5
323 10 1
308 14 11
459 11 3
37 13 17
380 4 19
72 11 27
337 3 7
267 5 7
248 6 19
224 11 25
373 6 3
385 2 26
221 9 2
466 10 8
296 12 22
232 4 3
441 11 4
466 12 24
297 6 11
426 15 4
340 7 19
199 1 19
38 6 20
305 14 12
480 15 26
396 14 5
375 9 9
489 8 16
112 16 5
146 1 1
211 14 21
402 8 20
409 16 27
305 13 25
465 3 9
241 9 26
431 3 20
12 10 6
302 12 18
479 0 23
17 0 13
216 3 0
367 6 21
151 15 21
443 9 25
267 12 3
433 3 3
254 1 19
263 14 10
215 14 15
439 0 5
242 15 20
428 8 8
126 9 9
70 2 2
228 2 20
366 6 21
316 7 11
136 6 2
111 13 1
342 4 7
48 5 13
126 5 0
474 6 19
50 12 27
356 7 9
446 4 21
245 12 2
8 6 22
278 8 24
483 6 27
212 9 9
439 10 14
424 5 7
236 11 12
112 11 18
474 9 5
408 13 0
414 5 16
169 10 9
115 2 1
314 6 3
499 2 0
29 5 22
21 10 14
481 14 14
410 9 17
214 16 4
331 1 21
22 3 8
19 8 24
317 4 8
325 2 18
119 10 14
418 6 20
278 10 24
378 5 25
258 5 23
425 2 22
237 12 20
280 10 18
184 2 21
480 6 12
51 5 7
109 1 25
4 6 21
169 4 25
205 7 24
478 8 12
469 5 8
284 13 19
471 6 0
118 0 14
95 4 11
397 1 2
289 12 20
338 2 15
424 2 15
114 6 10
477 1 19
84 4 18
331 16 3
233 2 8
486 6 14
400 1 15
411 3 3
215 8 14
62 5 23
253 7 28
127 4 13
466 11 25
284 16 13
269 4 15
488 12 3
56 6 13
91 16 15
99 7 11
186 4 3
147 1 10
1 8 2
219 0 1
226 11 28
3 5 19
411 8 15
121 0 10
209 12 7
90 9 14
408 12 1
451 16 6
62 2 27
402 13 16
240 5 18
309 13 27
133 5 13
276 6 18
132 13 13
8 12 7
174 2 28
60 4 21
332 4 3
261 2 23
402 4 10
169 15 9
339 8 4
346 2 9
395 15 11
137 14 19
430 0 13
459 3 22
269 9 17
437 15 12
204 10 22
64 16 19
152 3 28
448 12 18
498 11 17
197 0 17
130 0 16
74 10 9
153 9 11
283 5 26
447 16 17
160 15 20
230 10 22
169 7 0
385 5 16
436 5 13
397 11 21
190 9 3
352 8 16
410 3 14
349 9 4
214 10 6
339 8 18
178 8 14
235 5 21
235 9 12
53 14 8
317 13 26
179 4 20
214 13 16
121 9 24
97 7 8
149 10 0
479 2 25
413 3 23
405 1 4
499 4 22
146 3 13
149 13 5
386 12 17
176 5 17
107 2 19
74 4 16
434 4 13
188 16 6
303 13 1
118 0 3
291 12 27
60 7 13
91 2 16
83 6 2
135 5 18
137 1 6
152 6 13
16 6 13
171 4 18
189 4 9
11 8 26
57 0 22
349 15 4
453 8 9
365 5 2
181 4 3
472 5 13
305 15 14
36 6 11
371 15 24
78 9 20
439 2 16
498 14 18
381 12 2
100 14 10
9 0 15
51 14 28
387 1 6
438 1 20
357 8 14
326 2 2
430 16 10
205 8 15
32 11 10
455 0 3
204 11 14
20 8 15
472 5 13
340 3 0
333 9 28
368 10 27
301 15 5
101 4 8
447 8 3
153 9 18
377 9 24
392 12 14
460 7 2
198 16 28
275 2 15
403 7 2
84 8 6
84 5 8
100 11 11
5 12 1
259 13 4
330 2 14
69 7 7
91 5 28
273 15 6
49 4 15
491 5 15
330 6 25
492 8 0
334 4 8
356 10 25
129 14 10
244 5 18
263 14 13
391 3 28
270 3 23
6 13 11
28 2 17
55 12 20
284 14 23
208 13 22
314 10 23
83 7 2
250 11 24
36 9 1
200 13 8
293 4 3
355 3 21
304 2 23
453 16 21
22 16 12
148 12 28
36 3 8
229 5 26
154 3 28
58 15 11
64 10 10
306 7 5
351 11 18
384 8 5
43 10 9
121 9 17
207 8 1
62 2 26
428 3 27
479 11 8
188 4 21
162 10 28
77 2 25
448 1 21
315 0 10
189 9 5
271 14 16
78 11 7
211 1 8
370 10 28
61 11 22
190 0 9
227 10 26
265 10 10
479 16 7
130 15 15
5 9 27
134 1 28
286 4 14
488 7 14
448 12 2
131 10 14
39 12 26
414 11 4
206 14 12
32 15 14
394 2 1
300 14 11
396 1 17
303 11 16
177 3 21
193 6 17
417 11 16
460 1 1
402 13 19
464 13 11
331 14 25
297 8 20
12 16 15
357 1 25
409 10 2
160 13 14
255 10 13
172 14 12
77 12 3
109 7 28
253 16 0
475 16 25
103 12 25
397 3 1
404 9 21
339 15 28
15 5 1
343 15 4
422 0 6
243 13 3
332 5 2
296 1 3
425 6 15
392 8 1
362 8 24
3 15 4
107 0 2
346 6 20
385 3 6
337 7 25
163 2 27
452 4 18
232 2 0
443 16 9
250 0 27
228 11 19
332 4 15
6 1 27
408 15 28
437 3 14
476 11 20
464 11 20
464 4 7
260 0 20
131 2 7
97 14 12
104 14 28
52 9 5
302 1 14
77 11 24
380 15 28
324 4 28
15 7 1
173 1 5
87 9 14
208 12 9
182 0 21
416 11 15
30 7 22
294 8 16
162 2 10
191 12 19
358 14 27
327 12 12
34 12 22
310 0 14
254 4 12
429 15 25
144 4 1
269 5 18
382 14 17
65 2 22
189 11 5
9 2 20
147 12 26
172 16 16
160 4 24
120 0 20
421 2 5
437 9 21
139 14 4
70 7 15
29 0 5
355 3 24
46 14 4
140 12 20
402 7 9
350 11 14
61 6 27
397 8 20
452 3 12
305 7 27
73 5 13
147 6 25
309 12 28
42 14 20
132 3 6
435 1 9
234 9 21
365 0 26
16 16 11
287 15 19
108 6 4
426 8 28
117 5 22
24 14 8
30 5 20
313 0 22
20 14 12
81 15 22
211 10 12
340 10 11
240 8 0
408 3 23
427 11 0
197 5 0
226 2 19
146 12 14
462 11 22
205 5 7
341 9 19
401 2 20
75 14 9
63 3 7
200 3 28
57 0 10
154 14 8
90 10 9
307 15 16
205 4 11
348 16 1
103 14 14
127 12 24
373 3 2
88 0 28
180 14 9
290 10 7
391 12 21
39 15 2
198 6 11
297 8 16
319 2 26
150 10 21
150 10 20
202 9 1
30 8 26
79 8 28
374 16 26
362 0 7
121 7 6
427 6 7
453 11 23
495 16 25
486 4 20
296 0 18
166 15 16
385 14 5
499 10 7
356 6 5
3 9 5
221 2 5
360 16 26
198 3 20
376 12 12
164 2 27
320 4 19
394 4 26
273 15 12
373 13 3
93 11 15
293 5 11
255 9 1
337 5 22
400 7 19
232 12 3
293 0 7
2 8 14
226 4 16
436 10 23
76 3 9
270 4 27
467 1 8
32 10 17
60 7 21
128 4 1
312 10 25
209 4 6
123 13 20
228 15 9
278 3 2
195 13 26
352 8 0
420 16 17
491 5 21
332 6 9
80 13 22
322 11 19
395 13 0
169 1 10
443 2 12
162 8 13
216 12 4
108 5 15
329 1 7
243 14 12
118 14 28
275 13 18
234 10 16
2 7 19
137 2 3
392 11 16
156 11 3
274 12 5
66 8 0
77 16 6
283 5 3
478 8 10
138 16 15
100 2 21
361 3 5
84 8 12
424 6 18
273 11 24
246 10 18
330 5 14
40 13 5
243 16 24
274 14 22
302 0 12
343 7 18
125 4 5
215 15 23
88 9 2
446 14 4
494 10 10
176 10 1
375 7 24
492 12 1
415 12 12
477 9 3
447 9 1
256 1 12
288 10 13
131 11 12
205 6 21
276 8 15
436 13 27
168 15 14
418 16 20
328 16 1
454 0 17
220 11 6
68 8 15
197 12 1
10 16 9
334 9 19
264 15 17
301 8 6
368 1 11
183 2 25
315 16 28
383 7 22
44 4 22
405 8 18
214 4 9
71 0 7
156 15 10
468 16 8
352 13 5
269 11 12
108 13 14
67 6 9
464 12 6
429 13 1
411 16 2
181 1 15
402 4 25
430 8 23
52 2 6
49 10 23
451 5 13
345 7 24
448 6 27
452 14 22
53 1 13
79 4 23
151 10 18
306 6 24
414 4 26
419 16 11
92 2 11
196 12 23
80 3 12
213 0 17
282 3 2
117 1 8
235 4 6
482 5 3
497 14 26
291 4 15
50 6 14
420 8 28
132 6 0
86 0 15
63 10 28
352 3 0
491 10 7
153 10 27
213 6 4
339 11 18
438 13 0
49 16 15
214 10 22
256 3 13
456 9 22
225 8 12
169 6 0
283 4 21
255 16 6
386 5 20
357 14 12
393 6 23
244 0 17
364 4 10
322 12 10
8 16 0
260 15 14
243 12 21
480 6 13
168 13 17
113 0 0
144 7 27
103 2 22
145 5 0
85 0 2
155 15 4
138 15 5
73 1 28
204 0 1
56 5 11
491 15 16
291 2 16
179 4 19
82 0 15
478 1 10
226 16 14
48 14 21
121 11 16
304 12 23
246 2 27
207 6 11
343 5 23
53 14 12
70 5 3
97 2 26
404 0 19
274 6 21
417 15 22
474 0 0
467 6 9
410 15 10
224 7 17
295 0 15
441 15 14
403 10 23
371 9 27
384 9 24
435 11 11
463 14 26
491 7 4
174 0 22
63 3 23
100 3 15
49 9 1
429 10 6
348 0 3
144 8 17
25 10 19
489 9 9
135 6 4
104 4 10
132 11 24
209 8 17
481 8 21
343 4 7
151 14 17
372 5 16
196 16 27
179 5 23
68 4 15
487 14 1
258 15 25
119 6 24
343 5 1
30 4 3
9 16 22
99 15 10
249 13 21
267 0 12
127 8 15
197 11 8
357 15 10
467 15 2
11 11 8
410 9 22
353 8 11
411 13 3
340 0 3
249 12 16
22 15 19
237 15 23
177 13 28
472 12 5
332 16 8
285 5 7
145 7 25
453 0 11
187 11 2
233 13 2
285 10 19
286 10 10
64 3 20
434 3 18
379 16 17
333 11 14
321 10 0
2 3 2
91 4 5
101 13 2
159 0 16
293 10 1
468 14 21
381 8 19
274 11 28
95 6 24
402 15 5
299 4 14
420 3 18
421 5 9
336 15 21
460 2 25
190 12 10
448 0 4
71 6 13
69 4 15
462 5 10
277 12 21
217 1 19
491 14 13
83 15 0
290 5 5
380 3 16
351 7 13
485 10 15
20 15 6
377 2 7
414 1 18
57 5 19
87 4 17
341 6 21
71 7 13
206 7 27
340 11 25
236 11 5
441 2 14
196 7 27
17 12 5
402 11 0
154 16 5
444 14 22
323 8 10
405 7 20
79 6 24
102 15 19
472 1 4
55 10 21
316 12 18
367 3 13
351 2 15
120 13 14
446 3 8
92 5 11
98 0 27
352 9 14
140 1 17
388 3 2
20 5 23
91 1 1
352 1 0
48 9 3
359 13 16
331 3 5
435 12 26
221 6 21
107 16 3
249 5 28
181 4 10
429 5 24
135 8 15
341 6 14
368 2 25
95 2 13
54 4 7
406 7 4
40 6 12
433 6 17
356 3 9
281 1 19
389 8 16
118 8 12
489 15 3
317 5 20
192 7 21
322 16 22
160 10 18
239 4 15
426 15 20
307 8 8
279 7 28
150 1 15
274 9 7
396 9 21
86 2 18
43 10 28
372 3 20
265 11 3
114 2 28
363 5 3
294 7 0
129 1 20
298 15 14
211 2 17
343 7 24
18 12 10
118 6 16
485 6 20
409 6 5
458 0 6
340 5 0
314 10 23
222 9 11
10 5 9
497 12 26
306 12 15
485 14 25
230 11 8
420 2 22
242 6 27
489 5 1
251 10 26
214 1 21
468 8 24
437 13 13
303 6 24
232 9 7
377 14 6
322 12 2
122 3 17
201 5 19
472 14 19
350 0 9
307 14 9
300 7 3
171 10 13
488 10 23
338 16 23
92 3 7
79 14 10
386 2 10
57 11 18
360 8 6
135 2 10
9 7 27
68 16 17
499 9 12
128 10 6
465 6 27
127 10 21
270 3 6
225 10 7
118 15 8
206 9 14
311 12 18
253 8 13
232 4 12
73 3 25
456 3 17
143 0 24
481 0 3
303 4 1
27 12 14
11 7 15
305 2 9
322 7 25
380 2 15
43 2 10
220 7 25
154 15 2
122 12 28
413 3 19
303 8 23
208 4 3
48 10 23
138 12 10
201 5 0
42 2 27
441 6 5
362 14 27
152 14 7
172 8 10
47 11 1
216 8 4
108 2 13
136 2 13
125 11 22
499 1 12
184 13 17
110 3 10
112 4 20
69 10 9
304 2 21
47 5 17
73 13 19
454 13 18
498 14 4
386 0 7
221 8 5
313 12 27
466 13 17
42 9 7
425 15 21
1 11 17
125 12 2
493 13 28
231 11 11
130 9 11
5 15 7
408 11 15
88 8 20
125 12 25
453 15 7
380 9 2
33 1 17
410 1 15
264 13 1
480 14 28
285 11 20
489 4 4
448 11 1
423 9 25
250 15 6
293 2 28
2 15 23
320 3 21
139 1 14
311 4 25
150 16 3
63 7 26
455 6 25
129 0 25
157 10 25
55 8 4
287 2 6
146 6 15
451 9 7
95 3 16
432 6 9
335 16 25
387 7 6
369 13 19
25 6 15
74 0 2
153 2 18
114 11 10
456 5 15
163 16 14
397 9 25
153 16 5
486 5 16
297 15 14
314 5 15
119 9 3
115 3 19
372 3 21
46 10 3
312 15 8
346 7 8
135 7 0
364 2 18
268 15 23
156 4 17
308 3 3
235 15 27
222 2 16
66 10 13
441 8 11
10 12 5
297 6 10
367 11 21
389 8 23
72 13 11
355 13 5
159 13 5
405 12 17
424 14 2
91 0 7
487 11 19
496 9 9
328 3 5
50 9 26
496 0 27
283 12 25
205 10 10
408 5 24
146 1 9
272 11 8
164 3 9
441 13 13
136 16 9
17 6 25
127 14 10
267 3 15
344 14 16
326 4 25
147 15 14
50 12 28
189 4 3
267 14 12
167 11 7
486 7 26
451 3 14
341 13 0
41 6 1
23 8 2
217 8 7
353 5 12
318 3 16
377 8 10
245 1 6
94 13 15
383 12 18
38 6 24
154 12 0
100 7 0
175 12 15
102 2 24
480 11 6
377 8 0
341 1 25
353 6 19
269 15 26
84 8 3
308 8 27
179 11 8
485 8 10
326 12 13
351 11 18
20 2 23
155 11 9
294 5 13
418 15 16
148 4 23
290 12 8
156 8 28
34 5 14
256 13 22
244 11 9
192 12 15
271 1 2
392 4 25
293 11 15
306 5 24
398 0 4
464 2 16
366 2 11
187 7 5
411 4 21
114 5 1
448 13 3
482 12 27
321 7 8
417 8 22
329 10 13
7 9 14
160 2 7
474 2 21
489 16 22
113 12 12
310 8 22
92 2 7
30 2 22
482 9 20
393 5 23
373 14 22
189 15 16
214 10 23
48 2 22
162 15 28
108 10 0
235 3 22
103 7 23
406 5 17
140 3 10
147 6 4
217 3 6
150 1 13
112 11 7
273 4 3
236 15 5
460 0 12
75 6 18
299 10 25
105 12 23
233 5 24
216 14 8
492 14 16
317 13 10
473 15 8
214 5 24
160 3 17
497 13 22
201 2 9
455 11 17
80 5 24
353 3 9
352 6 17
147 5 13
305 3 12
338 0 27
78 5 22
496 12 26
334 5 1
13 14 3
42 15 25
240 14 17
292 15 17
189 6 16
395 6 19
440 7 8
377 2 27
101 14 25
254 11 2
83 4 1
451 8 8
452 5 20
124 2 11
154 6 22
287 15 28
299 4 9
348 15 22
460 6 26
98 8 25
391 15 25
260 8 25
137 1 14
125 16 28
192 1 4
376 12 2
357 9 28
138 7 11
418 12 25
66 13 15
416 14 19
380 2 5
87 12 12
273 16 19
491 3 14
83 6 14
174 13 12
475 14 6
468 3 20
305 4 8
94 11 9
215 7 4
389 3 12
478 16 10
380 16 0
141 10 6
185 4 8
176 12 6
4 2 14
125 7 20
475 1 16
228 13 13
480 6 21
157 2 18
356 10 20
445 16 21
440 15 25
338 1 6
209 2 24
332 10 0
58 10 11
416 5 26
196 14 26
303 2 25
292 7 11
424 13 13
240 6 14
26 0 9
37 12 11
140 3 28
387 9 6
154 13 6
434 1 21
162 11 23
105 0 20
332 10 0
162 0 21
62 10 12
172 13 7
485 11 22
218 15 7
179 6 2
451 0 19
11 13 21
259 13 10
257 14 2
462 9 25
154 9 4
256 15 22
235 8 27
287 9 14
422 4 8
287 9 4
142 3 28
483 12 9
73 1 25
478 2 20
172 5 9
274 14 10
290 10 25
155 8 10
121 13 19
456 12 0
309 10 6
471 4 28
17 13 10
39 5 12
380 4 22
331 7 21
390 6 12
299 6 3
78 9 3
105 15 5
238 2 16
25 4 10
74 16 6
232 12 3
403 3 16
373 10 9
157 16 20
433 10 22
163 16 12
373 3 6
357 16 24
391 0 21
489 0 3
247 15 16
198 3 25
376 11 7
46 15 28
330 10 2
209 11 0
408 9 21
121 13 21
4 9 25
444 11 7
191 11 14
302 1 7
192 14 0
403 13 27
178 12 24
356 4 1
70 12 7
357 7 18
216 3 28
381 12 11
280 2 1
208 4 22
410 1 25
413 8 7
80 5 22
150 3 10
398 16 13
319 12 22
441 8 2
0 7 3
415 2 17
423 8 28
277 14 9
226 1 13
104 15 3
426 9 18
88 2 27
281 4 26
186 8 7
324 4 14
432 12 1
23 12 23
212 2 12
140 15 24
264 3 18
95 5 16
251 0 18
417 0 11
307 11 4
264 15 18
482 12 15
39 7 9
244 11 9
367 6 9
310 8 23
82 14 4
144 16 13
113 4 13
209 1 27
5 13 6
162 12 22
128 11 6
160 9 2
141 14 18
181 5 9
243 12 6
159 6 12
42 12 3
174 3 13
166 2 26
388 15 2
386 12 5
211 9 9
299 6 20
284 13 16
258 10 21
148 14 5
66 1 8
355 0 21
257 9 25
157 5 8
281 16 13
218 5 22
495 4 20
391 2 4
170 11 2
461 16 14
181 16 2
194 8 6
321 16 26
59 10 4
121 6 4
402 2 26
432 10 25
187 7 13
65 4 10
390 3 9
374 9 19
423 10 14
479 4 24
158 4 14
191 10 14
419 6 20
443 14 22
380 1 28
312 2 7
289 1 8
482 12 14
432 6 10
339 6 15
55 16 15
286 2 7
84 15 4
427 13 11
122 8 24
381 12 14
140 7 21
399 0 12
397 7 25
459 10 20
433 7 9
333 1 0
271 5 14
171 10 26
223 1 23
17 8 20
313 10 24
342 8 25
152 10 28
284 4 8
158 14 22
170 12 23
58 0 2
346 14 13
191 13 1
107 11 1
53 0 23
395 9 8
244 13 18
243 8 24
400 4 16
350 12 11
173 12 10
140 4 18
371 16 5
262 4 16
274 12 1
183 13 6
353 12 14
2 1 27
159 15 10
139 1 15
131 3 16
499 3 15
303 7 4
259 12 28
380 12 15
402 9 23
113 7 7
349 5 5
38 15 4
177 1 15
14 2 24
403 0 16
335 13 16
285 6 20
128 15 13
464 6 19
409 14 5
165 14 0
298 16 9
69 8 14
32 14 2
451 12 20
286 11 12
184 11 12
126 1 28
383 6 5
136 4 22
239 14 28
342 14 5
90 1 13
299 9 20
425 8 23
130 14 9
460 14 18
246 9 23
90 13 27
327 2 27
19 6 3
422 16 18
187 14 17
439 9 15
296 8 22
17 6 12
314 12 6
396 3 15
325 10 12
157 11 17
81 10 3
200 11 25
33 4 4
232 2 19
92 0 11
2 9 25
407 4 27
234 13 26
7 6 10
273 3 0
429 11 10
56 3 16
237 0 13
361 14 22
437 14 26
373 10 0
492 14 21
342 1 12
143 7 0
321 8 26
474 1 12
210 7 18
218 7 8
329 10 22
183 10 23
65 6 26
422 8 10
82 7 12
393 14 15
94 8 25
448 7 26
215 0 17
497 0 20
250 6 8
195 15 23
460 1 18
47 11 10
180 12 19
397 3 9
110 12 21
425 12 15
58 6 24
75 0 3
262 7 3
217 14 25
108 7 14
482 15 16
448 5 25
496 11 6
249 5 6
266 3 22
386 6 14
318 13 3
372 12 0
257 9 17
185 9 11
393 4 21
448 4 4
377 6 16
4 13 24
480 15 21
225 2 20
301 6 22
247 1 25
230 13 16
449 8 8
139 13 16
30 14 24
268 14 12
132 10 28
14 8 22
268 10 24
481 3 9
47 16 0
37 12 15
365 11 7
70 4 3
231 11 25
329 8 22
98 0 5
67 8 4
403 13 17
335 8 15
428 13 6
135 2 24
350 0 5
314 8 2
95 8 0
98 10 22
438 5 1
19 15 18
460 14 23
270 16 22
34 4 12
193 13 21
206 0 10
276 0 18
261 4 7
141 13 14
121 14 15
192 1 20
117 8 3
267 8 26
319 2 28
446 10 13
128 6 4
69 7 16
361 10 27
40 15 15
320 0 20
245 4 5
403 3 7
313 8 1
428 5 28
146 3 7
69 9 11
35 7 12
379 3 3
478 7 12
424 11 5
306 16 15
208 15 11
249 2 23
11 15 17
304 9 1
208 6 20
99 7 22
51 0 9
103 10 21
219 10 2
266 10 2
47 14 16
357 14 9
93 7 2
76 8 1
130 11 24
315 2 1
6 5 23
465 3 4
126 8 10
222 13 4
410 10 0
161 13 17
452 6 24
318 11 12
17 7 5
282 7 12
63 13 1
234 14 24
386 3 12
251 7 3
296 16 7
251 13 28
249 10 2
4 11 6
101 16 21
480 13 18
381 7 14
157 15 0
251 7 10
160 2 12
426 4 4
367 0 8
253 16 15
403 11 15
209 11 20
277 15 7
328 0 0
311 0 12
210 11 16
58 9 3
420 11 19
62 10 15
483 12 4
171 1 0
343 1 28
143 11 16
433 7 21
118 0 28
297 1 20
46 13 4
495 15 17
51 13 6
89 13 13
394 14 12
373 3 28
261 5 27
57 16 20
43 4 2
132 15 27
170 5 25
282 10 16
371 15 6
56 9 14
88 9 15
318 9 15
70 1 18
313 4 16
120 7 5
298 12 25
383 0 8
86 10 3
218 3 9
386 2 8
358 5 23
465 6 19
37 14 19
181 0 5
325 1 15
10 4 15
317 11 10
291 2 18
389 7 10
26 2 23
211 0 16
442 1 27
423 0 14
214 8 26
37 6 2
88 9 7
93 0 17
485 9 16
103 6 25
127 0 10
136 0 10
353 9 13
362 10 19
452 6 13
203 11 0
447 4 28
267 13 10
180 13 25
207 14 21
302 6 2
357 8 17
51 12 23
260 11 21
228 14 11
180 8 27
78 16 9
377 1 9
152 9 0
329 0 8
198 4 21
281 2 21
493 10 1
475 10 21
250 9 23
252 12 4
225 13 25
386 10 17
285 5 6
80 13 28
410 12 1
87 11 24
278 2 15
332 8 27
131 0 1
408 9 0
499 8 20
244 15 5
346 11 2
298 15 23
375 14 4
186 13 3
347 7 1
425 16 17
322 4 24
268 12 17
90 15 13
188 16 15
155 12 21
289 12 19
333 12 5
397 11 4
303 13 14
343 4 15
106 2 1
4 5 27
169 4 26
22 6 18
178 6 19
403 16 14
124 11 17
306 11 14
321 4 12
417 2 20
234 12 10
313 16 25
274 7 21
238 9 8
438 6 11
241 9 18
445 7 21
203 13 13
41 2 26
448 3 3
28 10 22
410 11 2
490 3 7
234 3 7
313 15 7
314 16 5
39 3 28
30 15 4
99 15 14
49 0 19
24 9 3
296 1 0
269 5 10
371 0 4
107 16 4
100 13 18
167 14 9
222 16 20
463 13 16
424 5 4
79 5 25
52 9 18
2 6 12
408 13 28
238 15 15
151 14 22
377 10 6
340 0 0
370 7 16
388 11 23
92 6 3
349 13 23
475 12 26
340 0 20
231 15 27
365 3 6
104 7 12
472 11 28
367 7 5
41 0 5
64 12 28
105 6 0
413 13 10
463 0 19
84 14 5
64 12 27
236 0 4
79 1 0
106 15 20
15 8 1
41 11 11
440 15 10
490 9 0
113 3 1
98 14 21
425 2 22
47 7 27
236 6 3
58 5 17
291 1 0
445 9 28
174 14 3
202 16 20
471 8 13
137 16 4
282 14 28
100 10 1
213 6 13
118 12 23
242 2 3
283 6 22
244 8 1
414 12 4
172 15 24
153 14 21
270 6 28
346 4 16
485 10 20
482 5 17
280 9 2
229 9 24
493 12 11
483 2 13
209 2 7
303 3 17
387 2 14
44 1 19
147 1 20
298 8 28
370 1 12
358 15 16
444 4 13
188 10 4
294 13 9
302 13 13
123 8 23
282 10 7
343 4 15
38 5 23
189 0 18
451 5 19
368 14 1
439 4 16
34 7 24
404 2 1
148 12 7
61 9 7
242 10 13
45 1 10
450 14 14
30 5 27
251 13 13
91 16 18
406 5 14
295 0 9
439 3 14
215 13 19
326 0 23
370 15 28
333 4 0
156 6 5
219 11 8
284 0 20
252 3 4
313 5 0
396 1 2
80 7 2
339 4 25
1 2 25
166 14 24
368 15 16
49 13 26
149 6 10
257 0 12
493 5 23
285 10 12
360 13 5
218 15 23
87 0 20
8 1 24
369 13 2
190 16 1
322 1 16
264 11 0
67 9 4
45 4 2
365 12 20
191 14 7
368 6 15
44 1 27
116 7 25
221 3 22
357 2 18
239 15 22
477 12 10
269 11 2
229 6 8
42 8 22
484 15 3
383 10 28
204 5 24
437 10 10
294 0 25
405 16 2
200 5 19
482 8 2
113 13 3
346 12 15
179 4 19
359 3 15
312 13 12
298 4 23
200 15 2
347 8 23
60 3 21
319 5 1
351 13 9
239 16 25
465 10 13
376 4 11
348 7 24
319 3 2
327 11 26
22 2 24
208 7 25
175 5 9
211 6 13
149 4 7
39 9 11
209 15 11
217 15 2
241 8 22
120 1 25
379 14 15
404 3 11
218 3 14
39 3 14
279 13 1
475 1 12
44 1 21
328 15 1
333 6 24
453 8 11
442 9 4
113 12 13
480 2 27
201 15 19
144 1 2
459 9 7
354 5 13
251 14 16
255 4 7
187 15 10
96 16 19
57 14 0
426 2 0
85 11 0
61 6 25
392 11 17
149 11 21
45 6 17
287 5 21
242 12 9
130 3 8
301 9 21
254 6 19
171 12 26
302 14 2
45 5 3
47 16 17
261 10 7
181 15 12
342 11 12
195 3 20
357 5 9
373 6 23
381 11 2
62 12 10
462 16 11
191 11 3
227 13 26
297 7 13
259 7 2
445 0 25
363 3 8
480 10 7
368 2 15
101 15 22
435 14 18
219 7 23
60 11 28
129 10 21
240 8 26
79 16 8
279 2 2
490 4 24
117 1 8
362 5 3
447 13 11
323 10 8
44 11 0
350 13 4
161 16 8
37 2 24
330 5 12
287 3 12
5 12 13
126 4 19
472 0 16
479 5 15
316 13 23
140 0 8
311 12 10
16 15 11
409 3 9
410 7 21
298 2 27
244 15 19
330 15 6
187 1 15
277 15 26
261 12 0
388 10 13
47 14 14
315 6 0
305 1 4
305 10 14
489 8 1
260 3 7
46 3 3
469 7 25
296 13 8
304 9 27
416 12 11
375 12 21
368 6 28
469 2 5
239 12 25
10 6 21
335 10 24
49 0 9
31 16 23
495 5 23
398 4 7
187 11 19
493 12 22
5 13 20
467 12 28
361 1 0
321 5 26
20 8 5
304 14 14
197 4 11
88 7 22
179 4 15
467 1 9
155 9 15
96 3 8
57 0 17
22 15 26
241 10 16
183 15 27
357 6 17
90 4 19
44 12 28
139 14 4
109 9 5
406 2 22
7 4 9
474 2 9
118 8 21
239 0 11
469 15 14
433 16 3
490 0 3
97 14 24
152 4 28
255 4 1
232 12 21
287 13 8
364 13 12
311 0 5
23 8 27
49 7 21
354 2 9
391 8 23
372 9 9
50 2 18
341 6 20
0 13 5
28 0 10
211 16 22
391 4 28
193 13 21
113 5 27
425 4 21
422 7 11
73 12 14
77 5 16
360 10 25
261 10 0
199 12 14
210 6 19
177 16 16
288 13 1
313 12 4
46 1 10
96 9 9
323 4 9
362 4 17
160 5 3
389 14 28
66 6 8
478 13 26
433 6 11
493 10 2
475 8 8
148 15 9
37 15 19
62 11 26
150 5 18
476 11 4
468 12 15
403 2 5
364 6 11
33 9 18
121 13 11
372 11 7
46 6 21
439 13 21
1 12 7
416 12 24
122 9 27
414 9 15
297 13 10
89 15 17
252 14 18
213 13 7
170 1 0
483 5 5
138 12 24
418 15 23
239 11 19
146 14 25
171 10 4
249 16 19
350 13 24
186 0 6
361 14 15
128 8 0
378 15 27
368 9 21
53 11 2
399 12 4
388 13 24
171 7 5
131 3 18
200 4 20
151 0 18
354 15 17
467 11 24
121 15 7
111 13 27
236 5 0
46 6 7
406 9 3
24 14 9
16 8 24
307 1 20
90 15 16
124 5 13
68 7 10
353 14 19
64 10 0
304 13 9
281 0 13
329 10 18
215 10 10
384 8 27
152 0 20
379 9 21
387 14 28
232 10 6
437 9 21
217 12 19
58 15 26
54 10 26
318 14 1
486 6 19
230 6 0
353 2 11
145 12 24
182 15 23
168 13 23
144 8 24
458 15 17
64 16 20
253 12 8
168 15 19
104 4 22
92 8 14
316 13 23
430 10 2
392 6 1
47 16 28
480 7 11
72 7 7
370 6 19
134 14 22
131 6 27
150 3 23
394 13 25
468 11 2
271 10 22
66 4 6
338 9 19
4 13 22
155 6 22
491 16 5
370 14 11
41 10 10
197 13 15
259 2 17
372 9 12
133 2 0
293 10 5
346 15 11
199 11 17
275 16 14
319 14 18
140 13 6
96 12 24
442 2 0
174 8 15
365 6 28
221 16 21
119 12 25
386 11 6
143 3 18
339 5 4
125 7 22
418 10 18
273 13 25
391 3 26
140 14 9
418 4 11
484 8 7
243 4 7
471 16 14
308 7 23
481 6 1
82 1 5
230 14 17
214 13 5
287 13 10
13 5 16
208 15 1
372 6 15
470 2 16
49 12 25
348 11 10
261 8 3
483 7 10
339 9 19
386 15 0
363 2 24
467 10 6
45 3 10
286 16 16
39 16 19
499 10 26
467 10 1
288 13 5
158 4 26
385 4 1
97 16 22
472 9 20
249 3 9
219 6 9
422 11 13
371 8 20
47 9 25
64 14 22
434 8 18
307 5 11
436 0 26
235 13 25
395 6 26
239 1 24
444 7 3
278 9 18
78 15 2
24 1 15
20 5 6
374 4 3
283 5 26
151 11 28
497 16 20
29 15 23
85 7 1
87 11 7
237 8 24
7 15 16
384 13 4
54 15 21
99 16 10
127 10 15
444 8 11
116 15 28
480 11 13
139 2 1
251 9 4
152 7 3
316 4 11
40 16 15
132 4 12
345 5 18
54 9 14
286 7 13
201 12 22
5 2 14
216 2 10
37 5 7
330 11 20
113 0 24
332 13 22
121 0 6
476 10 8
156 5 6
102 6 20
104 6 17
285 3 10
383 1 3
316 11 22
414 4 8
71 13 20
297 2 14
153 15 24
145 15 27
341 0 10
292 12 12
112 12 7
245 6 21
206 14 12
458 14 2
476 5 18
463 15 10
112 15 12
240 7 8
299 12 23
4 1 17
462 14 28
228 16 14
56 3 0
24 16 17
327 8 2
496 14 14
217 3 5
166 13 0
70 2 19
19 8 23
119 14 3
1 12 9
318 6 3
351 10 12
153 7 16
352 8 26
361 0 20
340 4 21
396 0 10
95 7 11
171 8 4
291 9 25
437 9 13
170 2 6
363 6 10
126 13 23
298 8 12
148 8 6
32 0 27
204 7 11
440 8 15
337 14 28
62 9 1
79 13 14
496 1 28
25 14 2
67 6 11
123 12 10
487 12 6
83 14 12
319 9 27
49 1 14
403 2 27
288 5 17
82 1 14
493 14 11
162 0 5
334 7 9
439 8 16
449 11 2
67 13 5
141 5 6
298 10 4
474 11 16
36 0 11
179 11 2
401 1 4
193 2 7
471 15 12
166 0 26
280 12 16
275 5 25
288 16 13
116 10 9
236 8 27
171 6 13
234 14 8
332 9 16
24 5 17
17 8 20
241 11 5
81 15 4
76 8 1
255 11 27
223 16 25
291 0 27
202 12 1
128 10 8
295 2 14
258 12 18
342 11 10
335 1 9
70 7 22
455 16 8
58 0 14
272 16 10
278 16 22
171 9 15
100 16 2
385 15 3
94 9 26
346 7 4
469 4 4
306 4 23
191 13 4
52 3 15
73 9 8
62 0 18
130 5 7
243 12 9
150 13 14
267 11 10
370 14 21
498 1 10
298 10 2
338 0 13
263 6 11
93 3 23
29 14 15
396 0 10
48 13 13
403 11 3
456 9 21
156 10 17
474 11 21
214 14 21
267 14 3
188 1 16
322 1 22
178 12 9
343 15 13
129 15 25
184 14 26
277 2 16
439 1 1
474 10 6
35 16 8
243 1 20
9 4 7
259 6 12
209 14 11
69 1 0
373 5 21
38 9 20
51 5 2
308 10 28
42 11 5
194 10 4
120 7 15
35 0 14
143 7 3
259 3 26
450 7 26
432 10 3
21 12 26
13 16 6
10 0 27
106 5 7
215 3 24
293 5 2
116 15 2
365 8 0
113 14 22
44 16 24
170 1 4
302 6 18
256 1 21
274 16 3
247 15 12
167 13 28
335 11 16
211 9 19
160 6 11
123 6 18
97 0 24
60 0 16
252 14 24
117 4 17
468 5 15
418 0 27
304 6 4
216 16 5
347 10 10
498 11 7
72 15 17
389 10 3
129 2 20
455 4 25
75 8 13
325 0 20
169 14 8
230 14 7
397 1 21
27 8 19
495 13 13
445 14 27
394 15 28
25 11 23
214 3 4
23 2 16
292 5 2
187 8 20
194 5 17
313 1 9
337 10 5
230 7 18
203 14 0
136 12 10
229 1 0
163 16 9
337 6 11
296 14 12
242 10 21
493 6 28
173 15 28
213 0 20
26 7 8
203 9 23
221 6 12
475 0 13
228 15 14
75 11 16
375 6 28
211 5 28
191 15 9
97 9 1
176 12 3
343 6 28
115 16 17
306 4 8
332 14 15
357 2 19
176 7 21
45 5 11
77 3 7
406 1 20
256 14 23
222 4 25
48 8 12
140 0 27
28 10 6
318 2 1
11 9 6
312 7 0
273 10 15
480 15 23
378 15 5
327 2 17
459 11 20
185 3 27
91 7 2
10 5 3
193 10 16
65 15 15
52 1 3
20 4 18
313 10 24
135 16 15
443 11 11
444 2 15
3 2 22
264 0 9
356 9 11
233 1 15
440 14 23
370 2 17
331 0 0
276 16 9
99 1 19
436 14 14
467 7 1
14 1 21
483 15 11
85 7 4
453 10 11
145 3 26
150 0 12
50 16 17
448 10 13
82 0 7
60 9 13
28 0 14
386 0 4
444 8 8
359 9 8
13 9 23
399 2 24
9 13 4
366 7 21
338 5 4
186 10 1
148 13 25
145 7 1
275 5 26
259 3 20
429 6 5
169 7 18
172 11 2
150 12 26
155 11 1
211 12 6
221 4 3
269 15 18
271 8 20
217 6 27
103 13 23
230 5 13
167 10 2
40 12 3
333 7 3
93 5 15
39 15 2
56 8 6
308 9 14
102 3 23
107 10 19
279 6 15
145 9 25
89 5 4
103 12 28
245 7 25
34 8 17
397 10 26
53 15 2
39 14 19
474 1 2
240 15 17
40 12 24
483 9 18
343 7 22
84 0 19
218 11 26
102 3 5
431 11 21
243 14 23
497 14 6
144 3 22
140 10 20
8 8 0
450 14 4
26 9 24
216 14 28
251 7 17
82 4 12
213 5 13
486 15 6
87 8 19
273 15 5
168 7 11
195 12 21
272 5 22
295 12 1
130 8 20
185 13 4
169 12 23
450 1 0
100 12 15
251 15 17
225 0 18
487 13 17
43 15 0
159 14 20
31 16 13
87 12 7
444 3 13
428 7 21
152 1 28
344 4 8
465 10 6
100 8 7
56 15 21
256 4 19
103 12 21
347 4 20
86 14 3
413 13 21
336 2 21
403 3 28
43 1 1
160 4 3
407 11 4
404 4 19
76 9 8
150 16 23
494 9 27
384 12 22
195 0 22
327 13 7
155 8 8
257 14 7
367 4 21
5 11 18
50 12 1
279 2 0
243 4 2
330 2 21
75 5 6
84 12 25
236 2 12
37 9 9
171 9 2
17 7 13
244 7 11
45 1 24
181 5 13
128 7 22
488 8 23
56 5 10
270 10 15
283 3 8
21 11 21
434 15 27
40 9 6
22 4 11
104 1 4
302 8 7
96 3 27
359 3 2
272 9 23
365 8 6
446 11 8
400 11 19
43 8 1
155 9 2
241 6 26
245 5 1
322 16 26
460 12 5
497 11 22
276 1 9
212 4 7
371 6 11
42 16 17
61 12 0
44 15 24
474 8 20
84 13 13
220 7 14
76 11 23
354 15 22
398 10 7
236 12 21
425 5 6
206 11 11
277 6 10
306 13 1
436 16 18
456 15 25
487 3 10
469 7 8
298 8 2
443 9 28
129 16 17
344 10 9
361 14 3
315 14 4
395 15 22
479 4 7
223 14 27
434 10 22
376 1 19
390 16 18
274 9 11
211 0 27
147 11 12
32 0 5
29 2 27
391 9 28
48 10 26
44 4 2
191 16 17
471 13 11
142 8 7
251 4 5
9 12 12
30 10 15
489 0 10
21 4 3
129 12 23
388 11 20
4 16 11
206 0 8
271 15 21
134 5 14
273 1 25
13 9 19
152 15 22
183 2 0
329 8 20
289 11 6
251 16 20
155 8 25
40 14 16
320 14 22
91 14 16
493 6 0
343 7 22
364 4 27
374 1 21
344 6 6
227 8 18
275 3 17
406 4 26
392 7 20
464 1 25
201 2 13
379 2 27
407 7 18
213 14 11
440 0 14
216 0 17
442 13 6
276 15 18
197 13 16
292 15 3
205 3 11
363 2 18
88 16 28
475 4 6
279 5 27
399 15 22
366 0 20
63 2 8
472 8 5
484 2 14
469 7 1
310 12 9
221 3 3
278 13 5
124 13 25
356 9 7
72 0 21
187 1 6
350 3 2
17 9 25
420 9 4
364 7 10
343 9 20
495 3 28
284 3 7
151 2 20
342 6 12
207 15 20
36 1 15
217 5 6
198 15 9
63 11 16
121 5 4
296 2 1
7 12 13
114 16 28
443 5 4
499 3 28
281 12 16
169 9 11
179 2 18
365 11 15
245 8 4
54 8 4
472 14 9
387 3 21
11 3 6
353 8 20
13 7 17
407 7 24
460 15 12
47 4 25
181 0 6
383 1 28
317 9 1
165 3 6
52 7 5
166 9 22
17 16 17
89 7 21
154 1 3
35 7 18
101 0 8
389 6 15
41 0 27
385 6 26
468 10 5
82 3 25
334 7 24
65 13 8
489 16 24
428 14 9
14 7 13
6 11 0
65 12 7
424 5 6
393 6 5
397 1 28
358 7 23
343 13 7
297 10 18
281 8 15
57 6 10
247 16 19
120 14 13
98 16 26
142 16 25
50 13 28
47 3 16
288 9 8
261 5 3
324 6 2
353 14 3
224 5 25
430 15 27
174 2 14
319 6 20
356 4 22
424 10 3
117 8 2
434 1 10
69 10 17
330 12 19
53 6 25
162 15 1
392 4 15
355 1 24
494 1 17
200 10 22
320 12 23
130 12 4
408 7 7
252 7 13
118 10 26
347 6 16
93 11 10
2 6 11
128 6 8
225 8 18
164 4 4
52 14 20
210 3 5
378 2 10
352 4 27
260 7 2
68 14 11
341 13 10
425 4 2
4 9 6
349 4 27
88 10 3
184 10 2
42 14 26
23 14 22
24 13 11
107 14 14
253 8 6
173 16 23
48 8 23
318 8 6
179 1 21
461 4 20
424 13 12
232 6 1
401 11 11
140 0 9
299 3 18
289 6 9
413 1 14
129 16 6
353 9 28
372 6 5
294 5 6
288 2 15
179 2 5
89 5 12
73 4 3
139 15 1
123 2 8
251 14 27
342 10 28
418 0 11
430 14 27
475 10 20
279 10 24
479 2 18
174 15 11
5 9 5
361 7 27
164 2 22
84 16 13
425 14 21
188 15 3
412 11 13
472 7 11
97 9 4
460 4 17
482 4 25
135 10 28
263 10 10
260 10 11
296 14 20
195 9 18
387 7 4
446 16 1
44 13 19
484 1 25
428 10 10
58 13 25
299 5 6
200 15 0
361 2 24
273 9 6
32 7 21
177 5 6
407 14 3
88 7 12
27 9 28
269 9 8
14 4 15
8 12 13
341 9 18
413 11 12
322 6 21
155 1 17
54 0 13
137 16 14
390 15 1
342 14 27
197 15 9
337 2 27
173 0 13
267 15 17
366 8 21
305 9 15
279 4 19
126 10 8
163 0 1
122 16 0
237 0 14
53 16 13
200 11 20
125 2 17
68 7 18
431 7 27
72 7 10
316 6 14
124 13 22
228 7 28
296 8 13
176 16 22
253 5 20
158 8 10
348 15 20
489 12 23
490 1 17
78 2 8
58 1 12
416 0 23
99 8 11
157 3 4
247 13 4
145 13 21
401 9 2
483 1 21
112 13 9
119 11 20
466 1 26
396 8 10
494 9 12
426 13 17
363 0 10
467 7 15
281 7 20
87 7 19
285 15 5
149 2 0
336 1 10
90 3 6
499 6 14
283 3 26
456 13 23
148 6 22
190 9 13
223 10 11
491 5 16
279 7 2
388 11 14
24 6 25
383 9 18
438 8 1
311 5 25
207 15 16
12 14 13
57 1 15
57 8 26
274 5 11
347 16 9
455 10 10
219 14 19
266 5 27
51 10 19
240 8 2
128 1 8
277 11 7
271 1 28
405 10 14
26 15 13
453 9 27
34 10 13
0 6 19
129 10 11
153 5 15
214 10 18
321 12 6
148 4 2
58 3 18
240 9 28
252 2 1
453 9 14
132 14 14
278 0 21
464 10 15
219 7 6
491 11 12
283 0 6
327 6 8
476 4 0
327 3 4
424 11 17
16 1 22
159 13 9
190 4 28
10 1 27
415 4 6
330 4 14
33 12 8
189 15 18
35 13 28
407 12 17
63 8 2
290 6 6
305 1 1
338 15 28
63 10 6
316 9 15
211 14 8
299 4 13
466 14 11
229 3 25
390 4 28
97 1 11
112 3 25
280 1 24
390 16 7
113 13 10
204 0 20
268 10 28
468 4 26
222 10 21
150 6 20
232 15 28
384 7 12
261 14 23
66 16 21
212 8 15
310 5 6
246 7 0
352 8 25
342 2 9
61 8 21
147 10 20
397 13 14
144 15 21
22 3 13
177 15 0
54 2 10
48 10 1
221 6 8
168 0 2
194 13 8
256 4 14
180 5 15
207 2 27
241 16 5
216 1 17
244 6 26
387 10 5
234 7 2
88 14 28
251 1 6
83 10 24
71 14 18
203 3 5
28 2 26
350 6 17
239 7 18
165 0 27
290 16 18
127 4 20
425 8 21
325 13 3
204 8 26
64 14 28
67 3 2
47 14 27
426 0 26
424 8 18
489 3 11
235 3 18
133 11 17
130 6 0
432 7 6
285 9 4
117 14 19
151 10 18
370 2 5
203 4 28
185 3 20
37 13 21
167 8 2
276 4 7
205 14 25
75 7 8
239 10 19
306 5 27
296 3 0
103 4 23
0 4 11
36 8 27
232 8 12
202 1 5
12 14 1
25 15 13
314 16 11
80 15 21
380 6 11
367 16 12
49 8 7
82 14 7
53 4 19
240 16 21
113 2 23
414 12 25
320 14 6
441 7 12
205 9 23
268 0 23
418 11 3
144 14 15
7 15 16
159 9 1
282 8 27
282 8 14
117 16 13
440 12 15
121 0 12
50 7 28
423 10 17
47 15 2
83 5 2
159 7 13
16 8 28
176 2 1
441 9 16
115 5 11
376 6 18
217 0 10
339 0 25
384 5 13
182 4 8
381 7 20
248 15 20
468 2 22
212 15 17
99 16 26
440 8 21
15 0 4
455 2 23
378 10 18
375 16 19
234 15 5
136 7 2
452 16 8
56 14 19
469 4 1
30 9 11
148 5 4
7 10 19
480 2 24
23 1 20
63 3 20
168 3 28
33 14 16
32 6 1
231 7 16
113 3 16
60 13 9
9 8 23
99 10 8
141 12 19
294 13 2
372 5 17
280 14 1
399 1 25
358 4 2
360 13 25
114 10 23
320 3 12
463 14 7
385 7 23
276 9 3
302 4 4
455 5 9
131 0 12
215 2 22
158 16 2
113 7 2
247 3 2
393 3 7
6 1 1
186 8 4
95 5 14
383 11 14
382 10 16
318 8 19
179 12 21
24 9 27
499 3 24
111 0 3
461 9 17
453 0 2
182 0 19
204 13 26
427 6 23
461 2 20
150 13 20
393 5 28
373 12 16
243 8 0
433 7 6
402 4 27
22 5 11
233 10 2
329 10 10
80 0 22
184 1 11
350 4 21
456 1 20
405 1 9
327 3 22
98 13 5
48 5 8
290 14 11
20 12 7
90 4 24
296 0 19
341 13 8
362 6 17
191 0 4
140 8 19
310 8 2
117 15 14
104 11 9
48 7 17
139 8 11
409 11 9
335 8 14
466 6 19
93 8 19
448 2 24
120 3 13
199 15 8
115 5 17
400 12 17
498 7 5
158 9 17
170 12 26
119 10 15
360 6 18
9 6 25
451 6 8
88 5 16
410 10 16
381 9 4
459 16 2
62 9 12
117 6 21
426 3 11
91 13 3
494 15 15
344 2 28
146 14 23
488 10 0
493 5 14
483 16 20
25 7 25
36 8 19
140 2 14
39 6 13
132 3 7
17 11 12
165 10 27
229 10 19
480 16 2
50 8 23
63 13 20
294 6 26
59 6 18
75 0 12
394 12 26
349 13 26
75 2 19
270 10 6
106 15 14
205 11 12
77 16 12
396 0 18
367 15 19
252 0 20
234 5 0
222 1 3
497 3 25
69 13 3
199 11 19
264 13 4
236 0 8
119 5 28
91 7 21
244 7 13
200 1 14
436 11 0
253 1 28
262 14 10
488 5 9
408 4 20
88 5 9
317 1 11
60 10 15
324 9 16
374 4 24
434 7 17
98 0 8
23 10 4
106 8 26
294 4 0
214 16 13
86 16 3
26 3 23
344 9 13
466 12 18
132 12 27
127 1 6
52 0 14
299 4 8
432 14 1
51 3 1
48 3 5
129 6 6
144 3 1
421 14 3
31 1 10
426 10 14
116 4 27
254 13 10
467 9 17
263 6 13
346 2 8
276 1 28
190 15 9
448 6 5
265 15 8
16 14 1
176 7 0
455 5 3
191 0 27
250 8 7
372 16 8
3 0 9
378 0 7
438 15 4
85 8 25
270 12 6
246 9 4
457 12 22
64 8 15
337 0 26
474 13 1
25 3 7
36 15 7
86 2 7
291 1 22
385 15 24
74 5 15
412 3 13
395 8 8
382 8 27
308 11 6
218 10 3
81 13 18
244 16 10
110 9 23
295 5 6
271 1 1
465 10 17
18 4 24
321 13 10
261 5 2
347 3 1
264 6 8
322 2 20
139 7 24
345 1 6
438 3 4
76 7 13
436 15 16
21 13 26
402 2 22
57 9 5
212 15 7
11 4 7
216 16 28
154 7 28
396 7 5
48 0 10
468 4 25
13 0 8
316 15 12
203 7 8
499 7 6
465 15 1
7 4 17
138 16 26
179 2 8
172 15 16
474 9 19
276 11 12
465 1 19
183 16 21
245 11 7
438 10 12
145 7 4
278 1 7
148 2 6
98 14 25
265 6 17
61 6 13
393 16 4
64 5 27
378 3 1
410 16 0
141 5 17
474 9 10
365 3 10
14 11 19
395 12 10
170 4 27
219 0 2
337 14 22
150 6 4
103 1 0
296 10 17
499 13 9
366 1 17
48 10 13
165 7 8
162 8 15
481 7 20
71 16 25
315 0 13
165 11 16
254 6 12
254 12 10
106 2 14
236 2 12
414 7 0
369 9 26
465 2 11
285 12 16
162 3 8
273 14 17
465 8 7
356 9 19
231 14 27
445 2 14
46 7 26
477 10 6
327 7 12
209 15 20
249 0 11
255 0 16
392 15 14
289 2 19
492 3 8
197 9 28
254 6 17
11 16 0
498 15 20
354 10 24
375 13 20
42 16 25
150 1 20
18 2 23
3 10 13
224 7 13
149 10 22
317 0 17
171 11 6
149 12 5
474 0 18
193 8 5
138 13 0
281 5 22
302 9 16
365 10 21
429 0 24
30 10 1
114 5 16
490 5 4
331 2 19
314 2 11
394 12 26
391 5 7
264 15 23
288 9 25
419 11 4
318 9 8
115 11 5
7 6 27
273 11 14
345 15 16
218 5 24
454 0 25
346 0 11
132 12 1
306 13 12
473 10 6
192 4 3
401 5 0
381 11 2
252 1 16
271 14 14
111 11 26
69 3 27
168 3 19
191 8 10
411 8 10
160 5 22
400 6 0
212 7 22
130 4 17
148 6 10
333 15 17
403 12 8
131 4 8
217 16 25
448 6 7
449 14 28
7 13 18
249 2 14
463 14 23
251 6 26
239 16 6
47 8 9
141 16 21
64 11 23
25 6 15
82 1 12
319 0 23
67 7 11
128 16 24
230 6 7
309 11 27
372 0 0
248 15 11
53 11 8
459 4 22
98 2 5
478 11 25
324 13 28
300 8 22
272 2 11
111 2 13
121 11 27
306 6 19
439 13 0
116 16 0
425 0 19
437 15 13
494 0 18
288 2 17
305 5 7
251 10 11
355 7 9
150 10 20
375 10 0
5 10 28
256 11 25
350 3 5
348 14 18
277 8 6
19 12 2
393 9 3
133 2 21
273 9 6
332 2 5
197 13 16
40 12 23
121 15 22
154 16 24
59 11 5
298 6 17
45 11 9
16 15 20
274 16 2
195 10 23
472 9 20
81 14 6
245 15 19
292 2 16
243 11 3
1 12 22
69 5 23
284 6 23
189 8 25
172 13 12
197 10 6
193 10 21
23 3 16
163 9 25
392 11 13
225 6 9
56 13 5
208 14 13
349 3 21
230 6 21
418 1 8
245 4 28
431 10 11
333 10 22
71 14 19
154 15 8
151 2 13
436 11 14
18 7 4
453 14 14
97 4 18
415 12 17
263 4 16
321 15 20
177 7 10
446 13 9
173 7 26
462 0 5
144 15 3
38 0 27
38 13 18
453 2 28
9 16 14
467 7 0
238 14 28
315 11 14
71 10 16
435 2 23
62 7 6
209 12 12
407 11 17
390 15 27
338 15 2
244 15 9
310 11 28
84 14 5
169 6 21
55 13 21
263 13 9
67 2 14
175 15 7
384 1 28
191 10 24
430 12 24
306 8 26
63 2 1
327 3 3
244 10 26
358 16 15
403 4 12
184 3 12
272 6 5
7 3 7
114 13 2
222 9 16
141 8 10
265 6 6
31 7 27
436 2 8
301 5 14
394 3 16
8 4 18
238 5 9
205 15 6
446 12 16
2 15 2
74 16 19
299 13 15
219 2 14
481 16 14
410 6 22
499 0 5
41 0 3
396 12 23
296 2 2
487 2 9
425 2 3
129 15 13
367 10 24
266 10 20
245 8 20
391 5 3
248 6 26
41 1 16
248 13 20
235 9 25
479 9 24
136 3 26
291 4 23
418 16 26
173 12 2
247 7 26
350 9 8
7 12 13
268 0 17
496 9 26
477 8 19
231 7 3
345 6 23
333 16 24
473 4 21
217 5 5
113 12 6
14 3 26
212 6 22
367 10 4
290 3 9
439 10 22
137 15 11
251 11 26
230 11 9
321 16 11
104 5 2
32 6 24
276 9 21
252 7 20
361 4 3
60 0 25
433 16 5
346 10 24
70 10 22
375 7 13
97 2 1
301 13 17
419 2 5
23 5 26
182 3 24
309 9 16
484 8 10
181 3 3
131 8 0
396 11 22
127 5 15
216 10 17
404 13 11
373 7 28
353 3 22
465 8 15
179 8 7
236 13 2
157 10 18
78 0 1
103 13 8
446 2 27
25 16 13
472 16 2
89 9 9
166 0 22
389 11 26
495 8 20
243 2 24
147 10 0
429 5 19
86 13 5
158 9 25
90 13 6
289 7 23
286 8 22
423 0 14
420 12 3
343 15 20
141 2 26
319 16 27
47 10 17
322 6 4
92 0 21
321 9 14
312 3 11
201 8 4
143 1 1
104 1 5
433 5 5
393 0 16
172 12 6
433 1 8
401 15 22
418 2 16
394 0 9
393 0 5
391 2 15
320 8 25
114 12 5
76 4 11
386 14 5
264 0 15
27 15 1
439 7 28
343 15 14
340 13 14
440 13 14
190 16 23
326 3 24
250 8 17
441 13 3
183 0 13
196 16 3
146 15 6
122 9 23
411 2 2
43 12 3
61 15 15
147 0 3
341 6 0
185 16 2
450 11 18
9 11 14
424 4 23
176 4 14
13 12 4
22 16 26
276 7 27
390 10 9
90 12 25
153 3 10
107 14 24
391 10 25
41 0 28
462 9 15
154 7 9
393 9 7
150 11 10
43 15 6
443 6 28
256 5 8
218 15 4
447 14 12
376 15 16
107 10 19
129 15 17
252 11 3
227 12 2
257 2 25
311 15 27
11 11 20
294 15 10
250 5 25
128 5 2
480 14 17
40 9 6
484 8 3
361 16 0
118 9 7
210 3 13
476 9 4
78 13 6
10 1 14
20 3 17
465 1 14
298 5 3
445 7 16
152 13 16
171 3 10
491 7 6
67 13 24
398 16 0
162 14 10
85 3 10
68 9 10
435 9 9
394 11 8
250 11 11
87 10 11
330 8 25
119 1 4
398 9 0
58 7 6
3 14 12
484 2 21
421 7 26
388 7 1
499 13 21
267 1 27
333 1 27
484 14 19
47 8 18
315 13 12
109 8 11
250 2 0
4 16 13
386 4 8
141 8 15
318 16 14
413 14 28
212 4 22
331 5 22
398 5 25
29 2 25
224 10 9
6 9 8
248 7 15
282 15 0
23 0 14
431 3 27
398 3 9
292 14 5
273 3 12
339 11 25
399 8 14
141 8 1
349 2 27
20 11 25
452 13 28
280 5 14
194 15 18
119 11 21
459 7 11
26 3 16
423 11 8
454 4 3
101 12 17
259 11 16
411 13 7
249 1 10
212 12 4
51 7 15
151 3 15
332 10 10
337 10 18
66 13 12
349 13 21
457 5 0
472 9 10
219 8 2
312 16 11
39 10 28
122 15 28
189 1 3
336 13 23
222 12 4
435 1 23
13 8 22
407 1 22
310 6 14
304 4 7
119 3 16
158 16 6
231 8 6
424 4 20
265 4 13
168 16 10
327 14 14
455 16 3
491 1 15
271 1 9
368 2 6
47 0 22
312 10 23
226 11 22
353 9 5
99 0 1
1 8 10
168 15 14
236 1 17
266 3 10
432 14 0
429 4 20
390 14 10
356 14 16
106 13 5
406 16 11
205 16 0
357 3 26
56 15 20
319 12 19
372 0 1
491 9 13
8 15 25
282 11 27
2 7 8
296 9 21
266 4 20
271 16 26
391 8 22
369 7 16
414 15 8
177 6 4
319 7 8
34 0 4
76 12 27
276 0 20
447 4 3
311 16 23
79 4 9
43 11 23
459 11 5
191 3 27
490 4 15
394 5 19
240 0 7
364 14 13
137 7 8
54 8 1
17 3 2
143 12 1
341 16 18
351 13 3
482 0 19
474 5 25
200 11 6
413 10 13
84 11 21
34 1 17
415 10 22
302 9 22
250 13 15
63 10 8
250 0 5
314 10 7
487 9 8
171 14 11
355 11 24
242 14 15
363 14 26
16 14 9
308 15 23
58 1 7
63 1 24
349 10 11
344 16 12
81 14 5
294 13 5
73 3 9
382 12 22
329 0 13
455 2 17
62 8 23
71 7 28
370 2 20
112 12 2
126 7 13
202 3 8
125 10 21
448 9 13
133 15 13
479 13 10
184 1 8
458 0 17
420 5 20
228 5 28
343 10 1
334 11 9
246 8 5
293 6 0
165 11 19
46 7 28
171 9 18
448 9 6
26 5 19
307 9 20
383 1 2
328 13 19
212 6 20
201 5 22
76 0 27
451 5 7
257 16 4
389 1 5
171 2 10
83 4 23
343 8 28
429 6 27
236 16 26
283 11 21
219 13 2
387 10 10
130 9 7
109 12 5
193 6 13
10 12 1
491 3 15
87 14 22
404 15 20
387 11 4
334 15 18
168 6 15
189 1 16
134 16 17
147 13 15
22 1 25
486 15 8
268 7 27
472 7 6
160 10 12
364 11 5
56 2 1
126 16 10
459 16 24
339 7 13
258 0 4
315 5 7
345 12 24
339 12 22
294 4 17
8 16 17
466 1 28
222 10 2
16 10 9
100 13 1
339 9 5
453 14 25
350 15 8
486 10 16
72 10 3
113 11 5
246 3 28
303 14 5
390 4 6
59 11 19
463 8 19
228 9 14
308 15 26
205 12 18
344 5 20
335 0 2
439 1 24
462 2 6
399 4 6
145 5 23
31 11 28
55 6 17
71 12 4
131 8 14
460 9 10
29 10 23
266 9 5
57 14 18
35 14 11
388 12 20
266 9 8
156 0 21
85 16 14
443 7 17
363 1 26
282 5 27
437 14 26
59 16 11
81 10 16
307 16 27
3 3 13
122 0 16
62 14 0
113 16 21
342 1 11
174 12 17
254 0 5
231 10 23
148 9 11
285 12 1
214 4 24
214 1 19
299 4 16
359 7 15
410 9 12
43 0 16
163 11 12
186 1 0
96 7 15
416 16 22
30 16 9
198 0 6
393 9 5
451 13 6
146 10 6
492 8 11
384 4 23
421 14 26
441 13 12
313 12 28
132 14 3
289 14 7
183 8 9
326 11 28
157 16 4
415 4 4
418 1 10
112 3 9
37 10 16
457 3 14
153 7 15
464 14 9
432 16 19
82 14 17
403 13 24
184 0 2
423 11 23
263 3 10
320 5 17
184 16 8
233 0 10
27 15 15
248 1 24
360 12 7
469 0 27
177 3 10
204 15 23
280 16 14
191 13 4
106 8 28
354 11 12
420 6 13
210 12 13
483 15 2
239 15 14
222 6 18
169 12 10
161 14 9
89 1 16
464 14 10
53 4 1
350 5 7
202 11 28
479 7 13
429 12 20
161 14 12
492 6 11
437 6 28
332 15 14
296 2 7
432 3 6
499 2 20
321 5 0
252 6 4
247 6 1
305 5 21
390 7 16
65 10 27
324 2 19
340 6 23
6 9 9
207 16 24
453 16 26
399 5 3
194 11 23
411 9 22
113 8 9
460 10 9
213 13 19
292 5 15
165 13 24
403 7 15
479 7 26
285 15 2
426 6 15
164 16 8
26 8 8
27 0 6
219 3 9
3 9 20
426 12 10
431 14 3
132 5 3
208 9 10
197 6 22
362 5 12
338 9 25
196 8 25
369 11 0
385 16 22
453 7 13
56 9 22
499 15 2
256 12 9
22 2 12
251 11 4
36 12 1
384 16 2
378 10 22
293 3 28
102 0 25
162 4 23
213 8 22
326 0 1
317 11 8
178 2 0
340 3 3
203 5 9
490 9 0
418 13 5
250 8 28
243 2 14
68 8 17
251 5 5
186 14 24
490 0 13
397 2 14
44 9 2
95 0 3
418 4 9
443 11 8
447 6 13
422 11 28
162 1 11
283 8 8
450 15 17
353 11 23
450 4 14
258 14 11
2 5 9
243 15 13
77 11 15
342 0 18
42 8 24
58 3 25
360 1 10
387 15 15
480 12 26
339 13 24
133 2 18
32 9 19
239 6 22
254 10 6
496 12 17
189 1 4
124 6 7
493 7 18
124 9 7
148 9 27
401 6 9
347 12 15
85 14 28
465 9 12
98 9 22
444 10 2
246 16 7
419 10 7
150 4 26
247 3 8
446 13 0
450 8 22
154 9 5
47 8 19
267 13 2
134 8 7
113 0 1
285 3 17
355 3 10
328 1 25
186 12 20
205 8 27
341 4 24
309 12 11
59 10 18
411 0 6
77 10 27
290 1 8
209 12 12
84 0 9
493 0 2
377 7 17
446 0 6
181 1 21
37 14 2
113 13 11
226 6 6
115 15 24
247 10 16
410 16 12
381 1 21
12 8 16
167 10 10
275 16 13
18 11 24
263 11 7
421 4 22
376 0 24
474 16 15
234 10 6
390 5 4
102 7 18
328 10 6
98 11 22
67 5 4
424 12 15
108 15 18
409 2 17
275 13 9
444 15 24
454 15 11
125 15 9
81 8 10
202 11 20
110 15 13
441 3 6
341 16 5
381 15 9
258 5 13
413 15 13
455 2 1
207 11 15
332 7 24
463 5 18
19 15 26
465 2 10
63 7 25
498 1 22
198 12 22
160 2 8
136 8 3
3 1 28
269 10 8
490 8 2
475 2 7
64 5 25
401 5 11
424 11 21
283 5 22
441 9 9
359 0 11
293 10 7
97 8 7
411 11 22
471 14 18
440 0 7
235 8 14
231 12 10
288 5 6
86 11 6
157 1 27
201 15 8
11 1 2
205 3 18
356 16 3
423 8 27
381 10 1
323 12 24
44 9 11
490 14 12
358 0 11
275 6 7
23 0 8
451 12 26
25 7 15
93 13 15
238 10 16
32 6 24
286 13 26
302 1 25
144 10 10
209 15 22
73 16 17
49 15 10
162 13 15
373 3 11
352 1 12
100 3 0
79 11 11
412 14 12
400 3 12
364 2 4
430 15 5
223 15 21
408 7 16
245 12 28
470 16 17
225 16 8
111 7 25
221 1 23
6 8 26
110 4 0
265 14 0
204 2 3
476 0 9
191 5 1
414 10 0
333 3 9
266 9 23
311 8 15
16 13 19
497 0 3
416 3 24
426 16 19
138 15 6
497 5 17
465 2 7
73 13 18
11 4 12
389 15 17
314 1 28
101 8 18
422 3 9
173 8 7
120 6 17
106 14 13
492 14 27
113 11 3
355 6 20
207 13 26
44 13 9
103 4 18
285 15 11
362 15 28
383 16 1
125 15 1
248 4 3
95 4 5
421 0 7
452 12 24
246 0 20
97 6 24
237 16 5
392 15 27
486 16 26
307 9 6
251 15 12
488 15 24
110 12 24
208 0 13
338 5 10
207 12 7
24 14 24
175 16 1
326 3 23
289 1 17
308 6 17
360 7 6
458 6 9
39 15 25
357 13 25
216 0 11
490 0 6
482 16 7
4 16 8
384 15 13
276 2 1
412 16 1
6 7 8
295 8 4
257 15 0
12 12 12
407 7 23
464 5 24
445 5 16
316 10 0
407 11 10
79 7 27
86 14 2
447 9 16
490 9 6
106 13 17
323 6 1
152 6 2
210 0 4
269 4 16
313 4 3
310 9 10
117 4 12
378 4 25
355 10 9
201 16 9
485 7 24
107 14 20
236 16 3
441 11 3
76 1 14
445 8 4
112 3 18
134 11 21
332 8 5
177 7 16
360 14 13
395 10 13
14 9 20
374 9 22
490 9 14
44 10 7
395 9 8
477 12 23
293 7 0
368 15 19
288 9 22
228 6 9
61 8 11
15 4 26
285 14 24
273 15 3
307 13 22
154 11 17
208 12 13
436 11 14
81 11 6
221 9 23
413 2 15
243 8 7
46 9 13
136 10 5
201 5 8
448 6 14
159 15 12
56 5 19
222 9 23
389 4 28
393 8 0
306 16 9
373 10 25
167 2 27
71 11 6
294 11 28
330 8 28
241 6 2
0 16 24
315 2 18
474 10 7
168 4 18
244 11 10
282 15 9
76 13 16
339 0 10
462 8 18
59 8 15
280 16 25
192 14 7
389 3 22
165 1 26
477 6 2
494 6 23
160 3 15
290 10 26
372 12 14
428 8 14
287 3 7
137 2 1
86 14 27
332 10 24
248 0 14
266 12 13
327 1 23
68 16 26
240 8 18
232 0 17
258 3 26
120 8 15
310 11 27
422 4 13
309 7 28
152 7 1
170 0 27
138 14 21
327 6 19
373 5 27
156 3 27
82 2 9
72 8 26
188 15 12
381 6 10
46 3 16
180 6 23
238 13 14
295 4 12
199 4 8
368 3 11
54 3 22
470 13 26
33 4 25
246 12 28
170 11 12
42 9 28
120 15 7
260 15 26
186 11 8
402 0 3
468 7 26
386 12 22
373 5 6
303 7 16
395 16 18
342 10 18
42 0 25
236 11 10
458 6 8
191 4 5
41 1 12
495 1 5
104 2 3
361 3 19
347 11 14
10 13 27
322 3 25
187 14 6
362 4 26
144 12 2
226 14 24
258 10 17
127 1 19
278 9 9
93 13 27
442 11 3
320 4 27
119 13 26
31 13 6
95 9 16
11 14 24
310 0 19
57 2 26
88 0 11
263 1 20
35 16 24
8 9 5
412 12 12
328 11 27
441 11 21
317 15 24
240 4 24
265 2 4
311 11 6
323 0 4
466 5 7
477 14 2
83 12 2
397 11 8
327 3 1
259 7 0
378 8 5
308 4 16
399 10 9
80 2 3
388 7 13
365 14 22
325 6 4
461 14 16
48 8 2
484 14 21
293 12 3
416 14 13
71 10 25
0 11 27
400 10 26
64 3 23
41 11 19
107 3 16
146 2 27
137 2 22
385 4 11
483 13 2
458 7 3
227 16 13
163 11 7
258 10 19
242 10 22
268 15 26
257 14 25
117 13 11
95 9 7
331 14 2
143 2 11
451 5 0
439 13 4
481 10 21
76 5 12
88 9 18
460 9 18
26 6 6
128 14 16
283 12 10
355 8 22
157 14 7
144 10 25
244 2 14
22 8 16
57 1 25
330 14 23
109 11 26
460 2 8
226 12 15
271 8 19
419 3 13
241 12 3
366 8 15
335 16 22
249 16 24
83 1 4
291 4 23
40 5 28
278 0 6
147 9 28
488 3 24
62 16 1
230 4 6
314 12 3
29 3 20
220 0 11
199 12 19
329 3 24
210 6 24
380 1 23
53 5 14
319 7 24
373 14 12
337 1 12
179 2 13
320 9 26
28 3 14
388 8 22
498 6 20
61 14 0
487 16 1
402 9 1
285 6 4
403 9 21
378 7 13
340 15 18
456 5 27
425 4 11
3 1 25
293 15 21
119 8 26
307 10 16
146 7 13
234 2 11
291 4 21
249 11 21
55 13 26
300 9 15
329 7 18
325 5 21
461 16 4
56 14 15
239 12 21
266 7 13
87 11 7
313 15 23
143 10 24
323 3 16
276 2 23
179 5 0
332 10 1
444 7 1
443 12 19
184 10 0
434 9 4
169 2 14
218 14 5
416 15 0
359 0 7
240 16 11
242 6 6
229 14 27
323 9 27
60 11 15
231 4 11
237 9 15
351 2 19
259 16 0
27 10 25
395 14 4
307 8 4
256 2 27
489 15 24
132 2 25
106 2 15
312 13 23
202 1 8
84 4 26
417 0 2
222 7 14
103 10 6
141 13 21
238 3 16
391 14 24
251 1 16
124 15 4
417 12 4
180 2 20
98 9 17
27 13 10
259 13 1
41 8 1
228 16 4
410 15 1
21 4 2
55 5 18
175 12 17
122 14 9
198 5 17
146 13 8
40 7 20
191 13 19
153 14 17
344 0 24
260 7 14
312 0 5
241 2 13
114 3 26
7 8 2
13 16 6
229 5 21
376 16 21
322 5 16
191 5 28
412 12 8
475 15 9
200 12 12
330 10 3
478 1 19
489 2 8
487 14 12
366 10 15
277 7 17
379 7 3
65 8 3
252 5 1
287 14 9
107 15 24
420 15 8
419 7 13
188 0 18
3 1 14
327 0 7
469 6 16
85 3 3
226 8 14
497 7 15
24 16 6
49 6 2
369 13 25
171 4 13
318 3 22
251 12 20
306 2 19
252 2 3
221 14 19
121 9 26
59 5 23
212 6 16
12 15 21
57 10 28
66 0 26
114 11 9
351 11 19
354 16 6
344 14 11
241 8 20
21 16 15
142 4 26
195 4 8
414 13 5
135 8 16
249 3 12
211 15 27
250 12 25
117 10 9
17 5 16
453 1 19
182 5 7
426 10 1
257 13 26
311 16 18
247 8 8
66 15 5
102 2 3
196 15 20
221 15 13
102 4 13
205 11 14
294 13 2
343 4 1
482 2 22
291 5 3
293 11 28
465 7 24
125 8 8
251 11 8
65 2 18
124 4 18
336 1 18
52 12 11
459 16 10
114 10 9
251 0 26
378 5 3
442 0 10
307 2 20
122 8 16
57 16 18
488 10 24
56 3 27
399 15 2
411 5 17
214 10 5
172 4 18
175 4 19
345 13 12
395 16 18
64 10 18
178 2 26
69 12 22
119 14 12
279 14 13
153 8 4
9 1 23
465 3 15
282 3 10
60 16 3
51 15 2
212 1 13
466 15 22
166 9 4
426 0 15
207 3 16
483 12 6
226 10 23
145 14 9
153 2 0
125 2 11
72 16 1
8 13 21
210 0 4
114 9 21
55 2 0
379 7 20
392 0 12
263 5 18
416 3 28
488 7 8
418 7 9
124 5 1
271 13 12
194 2 24
264 14 15
343 0 4
39 4 25
239 13 20
295 14 9
68 12 6
254 2 11
155 6 0
492 16 15
404 8 2
333 10 9
123 4 13
408 14 21
494 6 19
497 15 5
187 12 7
95 16 16
468 16 10
158 3 14
369 6 2
412 6 15
113 11 16
228 12 26
347 8 25
195 14 6
223 5 18
411 0 14
485 3 19
440 6 26
252 3 12
181 5 4
127 1 11
246 2 15
486 15 27
257 12 28
201 5 1
405 16 25
81 1 17
31 8 14
286 16 11
152 5 12
454 13 22
10 4 3
443 1 12
197 4 22
126 16 26
475 1 28
213 11 17
304 15 5
231 3 15
172 1 22
334 5 16
300 12 15
66 3 11
481 8 4
324 5 20
16 0 9
136 12 4
135 10 4
236 11 22
305 3 20
307 7 1
184 11 3
488 5 19
373 15 2
296 16 14
25 3 18
313 8 0
335 1 10
338 2 18
442 8 7
487 12 19
477 1 20
18 6 2
220 12 28
132 11 2
372 11 26
366 1 17
49 1 23
2 0 16
107 6 11
440 13 16
8 13 23
292 1 0
494 9 13
243 9 28
104 6 12
137 12 24
285 1 16
468 14 20
411 5 13
85 16 1
16 2 6
155 5 12
30 7 5
466 6 9
241 3 6
491 1 28
163 0 0
186 16 10
37 13 19
113 4 9
264 3 22
121 13 6
291 12 23
378 12 12
341 16 28
384 9 7
396 12 13
212 4 22
85 13 7
405 0 24
121 10 8
256 15 22
161 6 17
329 3 23
31 5 7
172 11 1
111 12 22
434 14 0
471 14 17
70 14 3
418 0 14
321 9 7
244 0 5
170 3 16
450 1 1
319 8 19
236 1 13
424 5 5
90 8 14
129 9 23
379 0 10
440 6 13
2 11 15
371 13 13
460 16 5
202 3 12
100 6 20
336 11 3
396 14 1
164 3 23
423 12 18
339 7 21
249 15 9
473 2 0
228 15 7
225 1 8
357 9 18
141 15 3
246 0 17
185 0 23
82 7 4
175 9 6
183 3 27
181 8 12
322 4 15
235 8 23
147 11 5
379 9 10
31 6 22
78 3 19
330 15 10
143 13 19
141 9 22
109 0 26
385 5 7
241 4 24
385 16 7
38 15 21
76 14 11
71 8 0
161 1 12
236 9 15
384 2 2
297 14 26
187 3 13
16 6 24
406 8 27
454 1 12
337 0 0
194 7 19
476 2 15
177 12 28
167 9 23
397 14 1
86 12 0
344 3 23
248 0 11
240 14 25
304 4 27
46 4 20
91 14 16
72 9 15
6 12 3
427 6 3
18 9 24
168 5 7
371 16 3
55 1 24
9 3 10
318 11 6
199 14 23
116 16 17
147 2 16
445 3 3
261 2 19
337 6 20
416 9 3
446 14 14
497 4 26
188 9 1
247 11 13
132 15 1
498 1 17
21 12 6
310 1 4
236 5 22
359 0 17
437 8 27
183 0 2
82 12 27
78 9 14
289 14 13
167 1 21
156 7 15
345 5 9
374 13 2
118 3 8
422 15 2
144 8 13
458 6 24
313 12 22
358 6 26
252 5 10
446 6 23
472 4 20
318 0 4
326 10 4
91 0 25
209 12 3
452 0 22
400 5 12
292 13 18
279 9 21
16 8 15
234 5 5
145 14 7
138 8 20
72 6 21
85 1 1
30 12 18
453 10 5
167 15 15
105 15 23
151 7 27
301 12 17
213 6 2
174 1 15
73 10 7
466 15 16
436 2 24
114 1 4
414 7 12
316 13 23
354 10 24
369 12 27
479 10 25
419 7 4
390 16 17
328 2 6
259 6 20
127 9 21
360 14 5
120 15 27
328 0 16
36 12 12
162 16 6
331 5 26
300 5 23
316 8 27
170 6 10
198 6 10
140 12 28
48 14 12
408 2 16
497 12 21
241 11 27
325 2 27
259 1 5
420 6 12
308 4 2
497 1 19
32 13 23
417 5 5
207 10 0
79 2 17
387 13 10
35 0 2
78 15 5
435 4 16
203 1 24
490 0 10
113 14 0
20 9 23
127 7 23
261 1 27
53 7 26
39 11 20
148 14 3
165 0 24
56 7 19
47 5 9
176 4 6
486 15 3
229 12 8
122 6 20
227 3 9
340 14 25
242 1 22
357 12 28
442 12 17
116 11 24
58 2 22
64 6 14
288 4 7
417 15 1
444 12 5
198 14 10
420 2 24
87 11 26
54 0 13
131 15 21
307 8 19
15 8 25
495 7 5
28 4 14
343 7 12
29 2 27
419 2 15
220 11 12
306 16 6
338 10 8
303 11 17
74 7 6
120 1 2
85 2 12
203 7 4
493 9 5
52 0 16
200 3 22
404 12 8
306 9 13
44 12 18
392 6 16
498 11 8
430 11 15
41 10 8
204 15 13
50 9 11
312 7 5
299 14 25
214 13 2
162 0 21
282 5 18
260 8 4
79 6 26
316 15 28
78 2 14
232 10 12
231 4 17
73 5 0
427 8 8
226 14 7
177 7 25
251 14 10
178 13 28
414 8 22
484 1 0
415 16 13
143 3 7
321 10 9
117 3 19
51 9 24
371 14 13
480 14 6
482 16 16
497 3 11
277 12 28
388 6 25
94 9 13
271 3 7
97 14 4
254 11 3
456 14 25
100 11 7
326 0 13
127 3 25
338 7 12
59 11 24
388 7 25
149 2 25
277 10 18
356 16 21
420 12 15
259 12 28
238 2 18
432 14 22
181 13 24
353 3 9
25 4 4
163 15 10
217 0 12
477 1 2
110 3 21
75 0 8
38 10 17
296 2 0
221 16 22
122 16 17
196 12 22
181 11 27
130 7 14
173 0 8
268 4 7
395 7 10
204 14 2
15 15 13
367 2 19
483 2 22
423 16 6
276 14 17
465 6 7
82 10 11
177 7 23
309 1 24
376 5 6
11 3 27
302 12 24
198 13 19
443 2 4
116 7 26
401 13 21
189 5 7
26 4 14
475 8 22
172 4 25
438 7 1
82 10 26
173 2 6
46 13 9
132 2 6
196 13 15
29 5 7
82 6 8
142 7 3
79 6 14
217 12 19
202 6 4
497 6 6
172 8 22
409 10 3
440 5 27
90 6 19
103 0 18
153 13 10
45 0 0
162 10 7
384 5 1
346 9 18
376 6 5
220 0 25
362 15 0
264 9 23
154 3 6
183 13 21
44 11 11
273 3 16
274 3 28
174 11 28
70 12 26
424 9 21
494 0 11
483 0 6
197 5 15
303 9 14
447 7 25
386 2 8
324 4 22
98 16 2
45 8 0
82 0 16
173 7 19
493 4 19
473 6 0
195 13 27
388 6 13
116 14 20
93 10 5
346 9 19
447 14 13
386 10 11
196 10 17
489 2 7
376 11 18
239 10 12
182 10 18
277 2 23
410 13 7
340 6 6
364 11 16
385 8 15
355 10 16
494 6 4
206 2 4
327 11 13
36 13 24
128 5 6
446 0 19
431 1 11
336 7 28
297 4 26
178 14 9
252 4 22
463 2 10
333 9 14
85 15 20
353 5 24
193 4 20
359 5 0
138 7 9
484 11 15
483 3 16
13 15 15
221 1 11
319 15 18
463 4 3
370 8 10
230 8 16
50 16 19
425 14 14
151 7 20
365 16 3
245 3 18
79 12 6
461 2 16
423 11 28
11 2 15
461 12 5
388 1 26
29 12 10
126 5 3
487 10 28
457 13 14
400 8 5
432 0 13
304 5 0
34 4 3
310 5 4
399 16 9
180 7 22
401 0 16
97 15 17
395 13 28
323 14 6
364 5 5
140 13 6
342 2 27
139 16 15
363 14 9
397 2 6
28 16 21
56 9 19
191 15 14
179 3 26
499 15 20
177 11 23
37 9 23
487 3 5
75 10 21
137 0 28
225 14 24
372 7 28
137 2 1
186 1 14
104 6 11
360 0 8
495 10 12
118 4 2
208 1 10
164 0 8
236 6 23
302 8 12
394 1 7
487 3 4
93 12 1
213 5 27
334 8 10
367 1 28
11 2 1
459 8 24
313 4 5
135 0 10
178 9 21
434 6 15
451 5 11
181 6 0
460 5 21
368 11 18
66 10 10
343 4 9
257 16 6
140 8 11
39 3 9
377 4 27
453 1 25
385 9 8
147 12 8
60 11 28
259 13 24
493 0 6
475 15 16
137 15 24
339 15 9
299 1 0
124 16 15
430 13 6
289 3 13
313 6 27
78 10 0
42 6 0
98 3 24
17 15 0
194 2 26
244 5 8
416 7 20
353 5 2
430 3 17
225 1 12
14 16 5
162 0 11
24 13 8
37 7 26
489 3 23
464 3 6
487 7 13
174 10 26
383 14 7
70 15 2
377 6 28
351 16 3
484 15 0
179 4 5
465 9 9
195 14 13
254 10 9
201 9 7
10 9 18
147 14 5
387 14 21
197 14 6
6 6 28
33 10 26
199 15 9
447 11 0
363 11 18
378 13 28
103 15 25
271 3 13
136 6 22
142 12 24
114 16 1
361 13 10
22 12 10
217 6 16
400 2 4
14 5 0
485 4 8
117 4 27
54 5 25
272 10 14
468 12 12
438 2 5
380 11 18
94 3 1
312 1 21
282 6 16
94 5 23
326 3 10
103 15 9
461 14 12
488 6 3
351 14 10
289 1 27
434 12 18
226 16 10
421 10 20
62 14 19
42 8 26
44 10 22
311 5 2
82 8 25
238 9 25
287 3 25
50 16 6
302 10 26
131 11 28
312 13 19
109 3 1
206 1 18
289 1 10
417 11 12
56 7 3
476 16 22
378 15 5
100 1 17
316 13 1
161 8 6
318 13 9
45 8 9
284 4 27
85 8 2
297 3 12
388 4 19
180 6 20
353 11 15
64 1 11
414 6 27
151 16 25
412 10 12
93 2 3
489 12 5
261 10 15
294 8 9
297 7 26
128 5 19
110 9 2
239 11 27
130 15 28
244 13 15
483 5 7
81 13 11
499 4 25
240 3 19
28 9 14
343 1 5
76 6 22
241 15 2
89 10 17
164 0 18
200 4 26
363 5 24
471 14 4
275 3 27
182 2 23
77 1 4
497 13 10
383 10 6
472 5 24
317 6 2
387 6 10
422 9 13
238 16 8
135 12 5
69 14 16
299 4 24
79 3 6
302 8 27
205 3 14
341 11 5
167 13 10
409 0 18
286 4 7
298 15 6
281 6 13
114 7 7
334 10 5
389 16 2
292 5 2
349 3 14
321 14 10
479 13 5
299 9 5
375 10 28
72 15 15
122 0 20
244 3 5
242 6 5
34 8 1
321 16 11
429 5 26
310 3 20
418 15 23
479 4 12
37 12 19
122 13 1
352 2 6
138 13 19
319 5 24
46 14 22
291 12 14
250 11 24
295 16 3
216 3 21
77 12 12
305 9 19
398 0 14
447 1 0
158 8 16
322 4 27
136 16 27
411 6 17
84 5 4
275 2 14
467 6 25
475 1 22
64 6 1
208 8 18
211 13 9
264 8 1
434 1 6
369 4 9
437 1 23
88 9 24
74 14 28
355 0 6
401 9 1
39 5 12
388 8 18
356 4 9
231 0 20
167 15 22
114 10 18
238 16 27
170 2 7
270 15 7
335 11 24
305 6 7
338 6 18
471 0 19
222 11 3
228 8 14
71 1 19
362 8 8
114 9 1
226 7 16
30 0 16
131 15 23
210 15 6
247 5 24
416 5 27
221 15 25
256 3 0
484 14 6
222 1 3
167 2 15
222 2 13
206 0 23
94 5 24
416 5 3
121 7 7
8 12 21
4 4 15
40 3 27
206 6 22
213 5 28
47 16 25
370 13 13
448 1 7
262 10 8
316 9 24
236 8 0
290 12 5
79 0 14
409 14 5
82 15 25
310 10 7
15 2 22
289 11 18
380 2 4
64 5 26
89 11 26
291 3 0
385 16 15
472 13 10
383 7 2
237 16 22
382 16 23
269 16 25
67 4 8
229 3 28
232 2 8
156 3 19
154 9 8
304 16 25
113 13 28
391 5 9
214 12 7
287 2 3
11 8 9
222 2 2
394 2 1
273 3 13
113 12 23
162 15 1
228 16 25
317 2 1
395 9 22
237 6 7
333 13 27
26 5 8
329 8 13
468 0 14
214 15 4
370 16 14
223 15 18
467 13 21
40 7 25
162 11 0
390 4 20
161 13 21
361 10 28
272 16 0
409 10 7
266 10 18
366 15 20
274 9 2
404 7 27
281 12 4
413 9 16
349 7 7
384 8 17
375 3 16
179 5 20
377 2 5
292 5 26
179 13 0
413 5 21
310 2 7
73 11 24
123 2 20
379 16 6
494 9 17
155 5 24
53 8 24
235 15 14
289 0 10
399 0 16
44 5 13
186 12 13
403 6 12
167 5 9
383 11 16
389 11 5
41 0 1
314 2 20
385 1 6
219 5 3
34 7 12
0 12 14
276 12 15
115 7 11
294 9 17
373 4 24
38 10 14
355 1 7
23 5 27
287 16 4
221 2 8
253 15 9
256 13 15
331 3 1
360 16 12
359 7 6
428 15 12
107 12 27
241 1 5
399 11 14
285 16 22
270 8 14
415 10 14
310 15 15
94 9 24
9 13 20
458 16 23
337 16 15
205 2 24
261 6 16
113 13 17
300 3 28
178 10 25
59 12 22
67 5 6
257 6 27
285 5 17
61 4 9
258 0 15
413 1 17
332 3 1
428 11 9
205 6 1
249 7 27
377 4 3
330 3 20
3 9 15
486 14 24
36 9 13
3 10 27
239 0 7
85 10 10
198 4 27
390 9 11
209 2 15
161 16 21
93 14 14
34 8 28
451 7 24
275 13 19
284 10 17
9 10 0
212 8 5
202 2 8
280 16 10
310 7 13
133 7 12
412 12 28
88 6 20
223 14 2
497 2 25
105 6 17
152 5 4
368 9 9
90 3 12
288 5 4
242 8 22
176 8 10
275 5 7
484 2 13
3 7 7
230 5 13
48 6 6
305 8 28
467 8 2
8 4 25
470 7 26
244 11 16
486 5 28
178 6 8
462 3 1
154 4 12
150 4 7
262 7 14
111 9 18
25 12 7
388 3 14
51 8 21
241 15 23
281 2 26
69 10 14
330 5 0
128 15 15
440 13 27
57 9 6
78 16 0
372 11 14
137 14 16
275 14 27
420 2 26
58 1 1
82 3 23
492 5 4
249 3 21
454 2 21
204 6 24
135 1 18
68 10 13
153 3 20
321 4 12
87 3 4
200 11 20
133 14 21
307 5 23
28 9 5
169 16 20
400 1 20
379 12 18
27 9 26
151 2 8
449 6 13
201 10 22
195 14 17
49 1 18
440 4 4
186 8 6
347 0 14
353 8 8
87 4 9
446 2 28
250 2 18
60 12 10
401 9 18
17 1 0
142 13 9
87 2 12
35 5 26
60 12 0
346 11 27
209 13 9
129 4 22
413 9 17
434 0 6
178 12 11
144 4 4
453 14 24
492 5 12
324 15 17
334 10 13
379 15 12
200 4 25
49 8 8
103 8 28
142 7 9
36 14 21
243 5 10
136 5 5
366 7 27
51 3 20
305 13 1
310 15 25
250 4 8
294 12 8
37 6 3
16 15 24
35 12 18
67 0 24
345 12 23
156 9 6
283 3 9
344 14 17
267 10 14
183 9 15
299 16 8
293 8 20
9 4 15
215 12 15
190 7 23
469 15 16
268 1 13
334 10 2
150 1 4
386 2 16
255 2 16
339 11 9
204 4 25
263 7 21
469 4 7
332 8 20
264 0 13
422 10 19
367 15 5
153 13 2
464 15 17
384 10 4
240 8 23
281 2 21
389 7 16
360 2 14
192 4 17
472 10 20
416 14 5
477 3 3
271 2 20
14 4 5
15 8 15
156 12 14
412 16 8
105 0 0
2 9 3
238 4 22
485 2 23
483 0 1
324 5 19
38 0 1
350 10 8
80 5 0
124 1 11
148 8 12
479 0 7
60 1 13
419 5 1
441 6 22
293 16 20
271 10 25
387 12 3
349 2 25
0 2 9
236 11 18
340 6 1
90 15 27
368 14 1
427 0 22
135 2 18
192 5 5
446 2 14
234 9 18
356 12 9
242 1 22
427 16 25
109 3 22
255 7 7
429 13 22
406 15 10
29 6 28
42 9 6
90 3 3
482 16 6
41 11 27
267 3 15
65 15 23
223 11 0
264 13 27
131 16 24
315 8 15
158 5 14
356 6 1
202 3 4
370 5 21
97 11 23
84 12 0
158 15 25
300 16 21
183 3 26
254 4 10
250 12 11
40 13 16
215 8 4
371 15 13
374 12 14
496 0 0
412 6 13
65 13 23
196 3 26
22 7 27
406 14 6
383 16 19
450 15 11
449 16 12
373 1 19
224 16 14
135 4 16
490 8 25
342 6 25
303 4 12
454 0 26
477 9 27
355 10 16
138 10 12
474 8 7
478 8 18
254 15 20
196 2 15
118 6 1
13 9 5
19 11 14
474 10 23
202 10 22
172 5 2
192 16 19
365 13 28
378 4 23
91 7 3
47 11 9
349 11 6
456 13 26
352 12 3
308 12 19
120 10 6
204 9 8
0 4 14
313 7 12
420 1 14
361 2 10
1 3 21
176 1 3
451 5 21
203 6 6
88 4 7
99 9 25
387 0 23
149 13 28
59 11 28
139 3 19
104 5 2
5 4 3
227 13 12
326 8 16
400 6 26
65 4 21
340 9 17
188 5 27
72 15 5
437 12 25
424 8 6
331 7 19
375 1 26
51 0 4
102 9 24
376 14 7
482 15 23
469 13 8
104 14 18
164 5 22
210 1 6
211 2 14
276 15 18
259 12 18
394 0 14
449 5 15
35 9 1
425 2 12
412 15 24
59 0 4
348 5 23
366 5 19
5 6 23
111 1 25
416 10 13
126 7 13
131 11 27
47 5 27
400 1 3
211 4 14
261 0 23
375 14 7
121 8 25
85 9 22
97 11 25
376 6 23
309 6 4
324 16 23
371 0 26
415 15 6
100 2 0
357 11 15
464 12 12
82 16 4
95 10 22
319 4 5
233 8 0
22 12 18
430 13 6
189 8 6
62 14 5
416 15 18
430 8 20
495 7 27
259 0 27
238 9 17
32 11 3
10 1 1
57 8 16
488 14 17
308 12 20
463 6 20
114 3 6
276 3 9
34 2 25
449 0 26
7 9 0
211 6 0
361 5 19
308 4 14
356 12 5
220 5 8
302 9 16
394 2 2
340 13 8
8 8 4
340 3 15
283 10 6
484 16 8
8 3 3
114 6 1
66 1 9
225 14 14
316 0 15
246 10 25
31 5 27
391 12 0
191 4 27
2 4 28
139 10 17
355 12 0
361 2 18
121 1 13
340 4 20
229 8 15
481 12 12
241 4 11
385 1 9
137 1 3
218 4 5
497 13 18
430 6 18
168 7 12
73 9 1
1 0 2
347 0 6
286 13 12
152 16 28
495 10 9
269 8 27
75 15 2
254 12 13
154 3 2
52 7 21
325 4 8
239 14 28
84 12 1
423 16 13
92 6 20
288 1 27
231 11 16
247 1 0
493 4 25
272 15 17
499 15 18
436 9 9
117 1 17
89 1 21
46 1 26
172 2 10
59 3 28
444 1 25
308 14 24
238 8 24
204 4 22
167 2 14
465 6 7
358 7 10
40 5 28
311 16 20
145 14 19
93 13 13
351 15 22
361 16 2
341 4 7
463 6 16
329 15 4
46 9 10
88 8 16
68 1 13
213 11 27
352 15 1
100 12 4
136 0 20
228 11 6
460 3 18
202 15 14
38 12 6
205 7 25
458 9 9
480 0 6
413 15 9
381 0 11
315 11 19
237 1 18
225 1 1
24 16 11
205 13 0
437 3 15
140 0 10
126 11 13
416 9 3
476 15 2
266 2 14
69 9 13
191 3 7
197 14 21
436 14 25
242 16 14
481 4 2
249 13 10
304 10 7
271 16 23
214 9 1
466 3 25
179 15 14
104 10 16
295 4 17
93 15 11
129 3 24
330 16 19
200 12 5
302 14 15
29 2 16
254 4 0
143 15 10
76 8 28
330 2 12
351 15 23
398 2 11
140 14 4
476 5 19
361 2 25
29 14 17
277 13 9
492 4 16
399 13 0
361 3 4
466 11 4
427 1 21
106 16 22
172 14 24
412 5 25
419 1 12
449 1 18
213 1 4
163 9 19
319 11 24
457 9 25
281 14 27
135 9 23
388 6 10
247 7 23
190 1 6
497 7 7
262 15 12
364 14 14
121 4 27
473 11 12
436 3 11
75 0 19
462 1 21
269 5 8
219 8 3
348 16 20
346 7 4
436 9 1
175 13 1
429 8 26
249 6 24
122 8 10
214 7 7
4 14 10
128 0 10
275 1 6
144 6 20
91 12 27
197 10 28
2 0 9
69 3 18
411 13 18
57 16 21
394 12 8
189 11 19
122 10 0
56 9 4
274 1 5
174 8 7
440 4 13
326 2 12
423 13 1
371 2 18
247 0 23
125 8 17
499 9 24
294 6 6
480 1 23
195 5 14
446 3 2
409 6 28
156 15 11
488 11 7
364 7 16
394 9 16
58 0 16
243 6 13
385 13 0
156 16 7
207 0 12
20 5 14
270 9 13
13 14 10
376 11 18
392 14 22
38 2 10
102 6 14
39 7 15
187 9 18
72 4 14
149 5 12
247 3 14
217 12 1
277 7 15
410 4 3
84 3 9
120 5 27
480 2 17
193 9 25
439 9 16
38 10 26
400 12 10
487 8 5
495 3 12
470 11 8
118 14 9
386 3 24
429 2 21
293 4 8
141 7 13
75 11 10
470 15 0
44 7 2
231 16 14
305 13 26
57 4 9
188 4 11
334 11 21
389 12 9
492 15 12
229 4 6
54 12 18
388 0 11
91 14 1
136 2 5
233 11 4
273 8 2
466 8 13
189 9 2
340 9 5
481 5 16
198 2 22
468 0 9
491 5 22
396 10 9
273 14 18
345 7 18
37 8 14
426 7 5
316 5 1
435 15 27
295 12 12
470 12 18
217 13 23
141 5 15
125 12 19
170 16 24
442 10 11
481 0 18
153 2 6
12 16 12
391 6 13
86 4 9
112 9 10
416 9 14
316 14 18
308 4 9
344 2 22
125 1 0
439 7 21
80 6 20
182 14 28
294 9 8
15 10 21
213 5 11
16 16 13
318 4 20
233 5 9
20 12 26
498 2 7
74 7 22
459 2 21
211 5 23
449 14 7
353 16 28
451 15 5
187 5 28
169 2 4
403 15 1
313 11 3
440 10 4
467 6 17
125 5 21
59 2 1
418 14 7
363 0 23
75 14 6
305 1 19
342 11 2
13 1 22
75 12 19
209 3 23
51 15 28
85 1 8
335 16 14
440 9 4
132 13 9
372 13 14
131 14 14
30 5 16
161 12 19
108 2 5
208 10 24
134 8 26
46 6 7
57 6 26
181 8 15
336 16 18
71 16 0
56 5 23
368 15 3
238 3 6
364 10 8
349 3 23
79 15 2
236 12 9
145 13 8
150 11 11
31 3 0
480 16 14
226 0 6
496 2 5
180 10 2
150 12 16
367 9 10
108 13 5
380 16 7
313 8 5
218 16 27
58 16 2
409 10 17
233 12 2
191 7 9
199 13 3
27 9 15
160 11 19
246 13 27
425 9 27
358 1 20
202 6 26
184 14 15
456 1 11
1 15 0
74 16 24
189 15 27
474 9 23
419 12 28
72 12 4
445 8 13
44 5 26
266 2 8
304 2 12
335 10 20
398 8 15
439 6 15
299 7 1
300 9 20
282 9 16
274 10 0
260 13 14
95 11 24
175 9 14
419 16 20
328 7 9
291 3 4
330 14 6
51 1 2
391 5 2
0 1 17
210 1 12
233 13 4
43 5 27
430 9 26
17 16 13
308 11 7
470 9 15
481 14 20
119 5 21
387 14 20
134 0 2
252 16 23
341 2 12
85 5 15
276 14 23
425 11 17
178 14 1
299 1 16
357 9 17
132 5 10
119 8 5
434 12 25
197 14 2
23 4 4
425 12 4
125 2 5
211 9 13
399 0 9
285 5 0
120 4 21
224 9 4
382 10 2
421 2 1
99 2 23
17 5 24
217 14 24
360 6 13
364 7 27
360 7 12
439 1 24
160 5 19
418 5 10
401 7 10
258 13 5
66 7 12
114 9 7
437 9 22
135 2 1
145 6 10
152 5 0
187 12 19
151 8 28
103 11 18
345 12 11
332 12 16
391 2 19
113 11 12
186 6 8
196 6 9
213 8 27
76 6 9
392 5 22
92 13 24
348 9 11
419 8 4
195 3 26
446 15 28
463 7 13
86 6 18
316 7 18
471 16 28
396 9 4
79 9 25
145 1 22
269 1 27
414 16 11
469 13 17
297 16 27
365 2 17
487 16 11
461 15 25
334 0 27
320 8 0
152 9 16
199 14 7
64 14 17
157 9 26
225 3 23
142 9 25
457 13 28
7 4 14
186 14 28
443 10 10
349 11 11
468 16 1
234 14 22
415 6 15
205 7 26
315 15 26
92 5 8
271 15 0
380 6 11
317 7 4
316 8 6
455 15 19
394 15 15
44 3 14
430 6 1
25 3 1
400 14 4
178 0 11
385 12 4
138 11 12
127 12 21
448 13 12
440 3 19
345 9 8
217 0 4
458 5 14
179 10 18
20 8 1
487 9 0
286 13 6
31 12 8
349 13 16
291 15 25
366 4 18
262 6 13
473 8 17
260 12 14
275 0 10
39 6 5
467 10 13
344 14 23
200 16 10
299 8 3
472 7 11
188 13 28
449 1 10
269 2 22
438 12 5
8 11 11
32 13 5
116 16 27
40 6 15
259 3 0
427 6 2
327 2 0
459 16 24
3 12 2
306 13 8
44 16 26
356 14 19
22 11 23
86 8 13
218 10 17
486 15 22
339 15 17
335 5 12
36 14 25
9 3 11
434 8 21
139 9 8
243 11 12
205 16 22
64 15 0
213 11 14
74 9 20
414 16 16
244 7 8
121 3 17
158 3 28
139 14 22
28 1 6
124 8 3
352 0 15
384 5 4
402 15 18
280 10 8
132 4 27
431 4 21
187 6 0
64 13 16
242 0 0
360 11 14
0 4 20
377 5 25
475 4 18
273 4 5
435 11 22
467 3 5
43 12 19
288 4 14
247 9 25
386 5 24
153 4 21
489 0 12
469 9 17
238 8 25
6 15 11
166 9 19
476 11 10
109 4 0
76 0 0
282 3 23
186 16 6
187 12 3
144 0 22
237 6 28
174 10 22
191 7 15
183 6 0
133 3 20
108 15 4
382 15 5
328 0 25
342 6 8
58 4 19
39 2 25
288 3 24
353 8 6
339 8 23
391 5 18
152 5 14
429 16 1
166 2 12
157 15 11
225 7 4
303 13 23
56 6 22
444 3 7
90 2 5
217 3 11
490 2 23
379 16 1
265 10 3
252 13 21
29 8 27
498 4 4
430 15 22
18 13 5
139 9 23
9 7 14
314 9 6
408 6 8
174 0 2
201 11 10
490 7 4
218 1 0
27 9 15
370 1 13
399 8 19
99 6 20
134 13 28
275 7 13
115 13 7
402 2 23
101 1 6
260 9 13
424 6 4
105 0 4
392 10 3
292 8 24
455 3 25
154 15 10
92 8 2
309 4 25
221 8 10
157 14 8
423 15 0
367 7 4
26 10 19
498 7 15
305 8 12
248 16 3
370 13 1
80 2 24
363 2 0
250 9 22
47 1 5
0 2 18
433 2 24
81 5 13
310 13 12
107 0 22
221 2 20
327 14 7
67 0 28
28 2 2
408 8 8
164 16 25
221 7 16
332 2 13
118 6 25
31 1 11
365 4 23
169 11 10
280 7 10
191 3 11
199 16 23
333 13 14
57 12 1
148 13 26
136 11 23
298 10 12
126 9 18
84 13 15
201 4 6
448 9 16
224 7 17
47 13 18
455 2 23
305 13 6
498 12 27
295 4 9
280 5 10
202 14 26
324 8 8
294 1 19
27 16 21
480 13 22
390 0 28
3 12 16
97 1 18
394 8 16
441 5 19
197 6 27
214 15 26
54 10 8
247 7 18
231 15 4
213 11 9
344 7 21
437 10 19
232 8 8
342 9 18
393 3 22
1 5 16
360 9 0
166 2 27
287 9 14
376 11 1
398 10 15
298 2 19
352 5 26
137 4 26
51 8 8
327 13 14
435 6 25
485 15 5
462 2 5
395 3 25
283 9 10
292 14 26
76 15 20
39 12 0
182 16 6
141 15 22
117 14 4
29 2 25
202 12 0
384 1 16
51 13 13
33 0 20
478 12 20
391 8 15
49 14 0
114 11 22
107 10 2
276 15 21
81 7 3
131 13 23
349 14 14
8 5 1
401 1 15
296 14 26
459 2 27
464 5 16
303 9 4
225 11 25
83 10 24
67 9 22
154 5 8
454 2 22
312 2 25
307 6 25
346 3 19
42 1 20
60 6 26
66 3 25
408 11 0
470 1 27
108 2 17
275 13 21
186 5 8
188 15 18
250 0 13
69 8 8
68 11 24
299 0 27
117 11 12
238 14 25
415 2 15
470 7 22
363 11 5
379 11 25
440 4 3
301 6 11
47 8 16
286 12 17
417 4 17
6 15 10
150 12 5
254 15 14
236 8 13
370 1 1
295 2 28
73 11 1
438 1 1
110 11 3
370 5 28
138 1 5
474 2 1
332 5 1
369 15 3
200 0 9
83 1 9
464 14 20
404 14 9
437 15 18
297 5 12
131 9 1
453 14 15
125 2 0
198 4 7
66 11 5
34 6 3
320 10 7
191 15 9
298 4 17
140 13 6
105 2 10
173 9 24
460 16 20
367 0 21
49 12 21
109 13 1
194 3 10
312 6 24
172 4 22
144 10 16
254 5 1
431 1 16
345 16 14
9 4 6
40 12 21
183 3 20
135 2 10
106 14 28
406 14 10
408 0 1
287 4 7
284 4 10
226 2 4
493 1 17
116 2 11
426 14 10
309 15 23
43 13 17
231 13 12
115 13 14
404 4 18
360 6 9
120 0 28
267 9 25
137 0 17
191 6 17
276 13 28
217 12 13
356 6 17
293 4 8
133 15 22
419 5 8
492 14 21
37 12 21
249 3 2
496 16 25
153 9 6
351 0 19
250 8 19
32 7 10
316 9 27
457 9 17
225 4 25
116 8 7
82 6 10
469 12 13
337 13 17
261 11 4
96 14 21
48 11 24
82 9 5
467 10 16
369 9 9
435 10 11
224 1 12
307 7 13
341 12 16
305 10 4
80 2 20
39 3 27
172 7 20
20 12 18
429 1 27
380 10 9
351 1 20
460 0 7
479 11 20
207 2 25
362 6 8
273 10 7
412 5 21
52 0 6
253 3 20
474 14 10
183 13 5
418 7 17
79 10 0
465 13 14
359 7 10
28 0 7
333 1 16
186 8 22
414 14 23
287 16 23
76 9 0
190 16 2
6 13 9
317 9 28
138 5 0
120 16 6
425 2 11
96 10 22
340 15 24
127 6 25
479 9 13
311 7 3
366 0 27
449 12 23
237 0 19
203 9 16
493 16 13
453 1 26
181 16 27
271 11 2
35 11 23
106 9 28
409 0 26
355 14 26
483 3 15
415 13 22
199 13 24
219 0 10
433 7 5
66 7 7
338 9 4
406 2 2
42 0 23
55 12 1
249 10 5
234 6 14
347 11 9
273 0 25
97 2 14
447 11 3
438 5 8
100 0 14
147 10 23
159 6 6
79 12 23
227 1 24
295 10 22
334 12 19
3 9 24
495 11 2
315 8 10
208 11 4
239 4 6
229 7 13
474 5 25
129 15 17
439 3 16
104 10 21
319 2 9
486 5 11
318 12 25
277 10 27
36 16 13
444 9 15
415 2 9
60 7 1
433 15 6
408 10 24
49 2 20
126 7 14
200 16 17
191 7 6
432 14 11
276 4 17
241 15 19
34 11 13
40 4 3
496 5 21
493 6 10
240 4 11
481 12 5
106 7 10
265 2 23
296 10 10
196 15 26
444 13 4
269 1 24
485 1 2
478 8 22
172 14 18
125 3 11
147 3 16
417 14 11
383 12 8
259 5 18
309 6 26
476 4 26
338 8 27
233 2 10
106 16 14
81 14 7
270 5 25
161 7 5
464 7 3
166 10 22
342 1 25
18 12 1
211 2 24
307 16 27
435 4 16
244 3 8
349 9 12
151 4 25
92 11 10
179 16 26
382 0 8
498 3 19
80 14 20
3 3 15
204 7 18
12 15 2
107 7 2
469 1 27
184 9 4
166 14 22
427 5 17
330 6 0
200 12 10
141 3 16
120 5 20
18 9 10
5 7 21
38 4 28
21 15 2
224 10 23
442 10 26
370 8 3
340 16 17
177 10 4
130 7 15
446 16 25
196 11 10
30 7 26
378 14 25
369 7 28
364 10 23
399 0 2
227 10 8
494 4 5
191 7 2
209 7 23
106 4 18
335 16 13
250 16 13
150 7 3
244 1 21
10 12 15
424 11 0
141 13 13
103 11 12
456 1 26
243 8 7
354 8 22
200 16 12
272 9 22
422 12 13
457 12 0
343 1 17
155 4 5
161 0 15
363 10 16
393 9 27
30 12 22
412 14 24
403 5 3
333 6 8
123 10 5
432 7 13
463 5 12
8 4 9
292 12 1
59 6 18
237 1 13
52 4 7
127 1 2
294 8 16
411 5 9
137 15 2
401 11 16
369 14 13
154 13 10
294 16 5
101 5 3
143 6 20
1 2 25
198 14 6
395 8 12
243 11 23
246 7 12
419 11 5
15 9 0
48 12 5
167 6 1
268 6 19
141 10 1
189 1 20
487 10 8
10 4 21
34 13 22
408 7 6
104 14 24
313 0 4
254 16 22
192 15 0
260 7 10
441 9 21
448 8 7
282 9 26
439 2 5
336 15 4
301 15 2
234 12 22
404 4 17
338 7 4
389 11 4
358 10 6
416 11 19
421 6 11
275 6 17
480 13 5
297 4 17
464 7 17
329 10 21
95 4 13
124 13 18
185 6 16
368 4 9
113 6 10
474 15 9
494 6 19
357 0 20
7 13 0
251 7 1
146 1 5
5 11 18
323 9 5
269 0 8
210 10 7
241 4 11
110 4 14
368 16 19
481 11 2
176 12 21
465 15 16
492 15 17
89 13 7
265 2 15
28 9 0
249 4 28
203 1 1
38 1 25
356 8 26
138 3 4
311 11 19
355 13 15
250 2 27
217 5 18
241 8 17
307 2 22
242 6 2
128 7 18
158 11 0
479 14 18
43 15 25
28 0 13
424 11 15
423 7 0
415 16 11
76 9 5
337 7 24
333 5 1
25 3 27
278 2 27
372 5 7
3 9 18
486 12 7
92 1 10
191 9 26
309 4 11
395 15 12
347 16 11
295 8 23
69 1 20
320 4 22
117 6 20
331 7 8
237 1 24
310 7 24
372 14 19
195 10 1
65 16 23
115 10 0
284 4 6
165 14 4
419 1 21
434 16 25
254 6 9
480 4 2
148 3 27
154 3 9
315 1 26
338 3 17
434 5 28
127 7 11
192 10 14
478 9 7
265 14 4
199 4 3
450 14 6
75 2 27
231 10 16
300 2 24
251 15 7
359 8 6
8 7 11
47 2 21
401 16 26
436 13 5
1 6 5
425 14 23
460 13 14
469 0 7
252 8 10
245 5 2
344 15 14
467 9 26
331 14 27
199 5 7
443 4 15
58 7 9
74 8 16
455 9 27
438 11 10
268 11 16
135 14 0
364 10 19
80 10 0
427 15 24
454 1 4
479 9 8
378 0 6
464 15 21
375 7 15
188 14 20
199 16 18
475 15 9
256 12 6
441 2 7
478 10 11
74 7 4
55 7 7
95 8 4
299 13 9
151 11 26
490 9 20
123 10 0
283 15 12
303 5 18
499 12 22
457 6 7
306 8 26
318 15 13
356 8 21
458 8 14
218 12 11
222 14 19
412 3 5
40 16 1
358 16 15
15 6 28
70 15 24
180 1 18
262 0 23
366 2 0
219 0 9
106 10 17
124 2 13
133 13 28
471 3 8
129 13 28
156 15 24
236 5 23
191 11 25
174 0 22
151 4 13
494 4 22
407 0 13
215 3 13
147 2 14
205 10 28
342 7 10
431 5 5
246 10 26
335 9 15
404 0 8
30 13 17
249 12 0
332 3 23
121 12 16
307 0 14
384 15 8
200 12 24
119 0 23
133 7 28
56 0 28
81 15 28
371 1 21
201 0 3
152 6 9
240 5 22
68 9 18
469 11 26
65 14 27
448 16 25
81 10 27
365 9 4
225 13 16
412 0 27
139 16 21
464 11 23
49 9 21
491 11 6
411 2 14
443 10 13
365 6 24
96 6 2
389 5 28
267 10 5
445 9 4
272 10 26
4 5 13
171 0 14
464 1 24
105 5 23
117 3 2
144 12 24
285 15 7
199 3 9
75 12 3
222 11 0
108 8 18
114 13 26
219 4 4
41 13 13
154 9 12
278 1 26
285 6 18
224 13 8
172 10 16
485 16 17
329 6 27
292 5 8
176 9 19
269 12 27
391 4 20
420 11 17
458 4 20
2 8 14
237 5 11
487 3 16
40 2 21
252 5 21
185 15 9
487 11 4
350 10 26
17 1 14
85 6 0
496 15 20
46 4 19
96 15 5
206 5 13
19 3 0
8 4 16
491 12 10
356 2 19
155 5 8
191 4 27
331 14 14
240 15 3
159 16 23
92 5 17
457 9 6
131 7 25
94 4 1
284 5 8
436 16 8
97 11 28
386 12 4
17 14 8
371 4 24
133 8 0
237 3 9
89 10 21
24 15 4
168 2 18
464 2 2
238 2 18
385 11 19
56 5 11
450 11 22
3 5 21
439 15 4
271 8 13
45 5 0
68 9 2
19 12 21
168 13 24
345 13 11
266 9 8
253 14 2
270 3 23
428 12 26
29 15 4
235 1 12
202 5 24
243 6 26
197 12 4
178 3 23
479 6 3
470 6 23
228 11 6
431 0 24
19 14 6
292 6 10
466 6 5
377 7 22
343 10 5
162 2 14
268 12 7
326 6 9
66 3 12
242 10 2
394 3 15
183 13 5
412 6 12
354 10 27
197 16 24
258 8 12
101 4 7
374 15 4
290 2 5
228 1 5
81 14 7
142 7 10
472 16 25
392 5 1
210 6 12
89 4 18
313 6 10
471 8 14
119 16 13
401 15 6
471 1 22
328 6 27
97 1 8
151 0 27
366 0 1
139 5 11
483 9 21
491 16 7
28 12 11
117 1 18
163 16 18
84 15 17
24 7 17
74 3 24
403 4 6
101 13 23
497 3 9
186 16 13
360 3 10
230 12 5
493 16 11
479 15 5
260 6 1
262 11 14
354 7 21
163 12 3
331 15 17
459 5 23
98 9 13
78 8 23
233 1 28
12 12 8
325 8 2
119 0 9
324 5 11
41 6 18
305 4 11
179 5 16
241 3 9
215 5 21
50 3 27
203 6 0
400 15 27
166 10 0
270 9 2
145 9 1
150 15 14
42 9 21
270 15 22
192 1 18
407 15 16
127 7 14
425 2 20
268 0 12
278 2 0
102 13 7
56 12 1
449 9 27
247 7 22
155 11 23
90 5 16
52 14 20
169 16 11
233 7 23
62 5 28
277 14 25
417 7 17
415 3 11
119 2 6
403 11 27
154 9 1
448 8 25
310 9 27
189 8 2
340 2 22
155 7 25
80 9 16
219 3 4
192 5 13
37 10 24
9 10 4
82 2 11
462 3 2
7 11 12
457 0 26
397 9 7
489 4 4
328 9 3
402 12 6
313 7 26
149 8 21
456 4 25
394 4 7
237 3 14
407 15 27
100 6 23
149 14 4
187 13 3
350 12 24
453 5 11
464 14 17
256 16 0
144 6 4
155 4 7
232 9 24
347 2 17
51 1 23
192 0 16
470 4 3
407 7 1
201 13 26
45 11 12
406 15 7
72 6 26
2 8 2
39 2 18
280 1 23
206 2 27
130 12 13
456 4 6
164 14 2
483 14 20
235 11 20
119 13 28
189 14 20
264 15 0
62 13 16
249 1 8
248 4 26
150 16 9
354 3 27
62 0 7
316 12 17
225 2 9
14 7 2
155 16 27
184 10 7
112 15 17
111 2 4
398 11 9
29 3 13
111 5 28
484 0 12
128 8 23
345 4 17
297 3 0
264 12 17
116 16 2
407 2 7
75 10 20
321 6 5
354 11 5
56 12 17
352 14 5
213 11 5
376 11 2
223 2 15
53 5 16
378 10 23
416 1 11
220 13 14
381 11 13
419 5 19
373 11 24
472 7 8
333 9 8
448 2 9
116 5 20
479 6 2
83 14 8
106 12 10
367 7 4
415 9 19
21 15 22
476 0 2
449 14 11
408 0 13
301 4 10
241 7 15
360 8 2
168 2 2
421 5 20
63 15 20
242 2 8
240 11 4
476 1 11
295 3 5
435 2 24
314 16 26
313 11 23
237 14 27
442 13 8
116 11 23
8 6 6
292 2 17
246 1 10
48 11 22
142 0 9
16 13 17
58 12 22
375 2 16
24 13 2
129 7 9
172 2 27
355 4 13
116 2 16
250 2 20
273 7 19
371 12 27
46 4 3
184 14 19
119 5 7
216 2 3
204 15 2
242 12 15
192 9 8
321 5 7
74 15 17
205 2 0
483 2 22
350 15 14
43 1 0
148 3 21
265 14 8
185 16 14
74 9 28
479 8 7
269 2 12
483 9 5
256 10 22
169 10 20
355 0 1
76 8 2
361 1 16
280 14 9
363 8 10
148 14 28
164 13 0
8 0 20
465 2 5
205 9 24
405 2 10
102 10 23
467 4 17
23 10 8
418 8 26
125 3 8
125 3 17
352 15 21
33 3 8
172 8 13
182 7 8
290 0 13
32 8 22
259 13 22
428 12 20
373 11 2
35 15 24
242 8 1
252 2 24
33 3 19
314 15 28
242 7 18
229 9 26
233 10 11
186 12 17
168 13 1
464 13 27
164 12 27
221 10 8
87 10 3
495 11 16
78 15 21
169 13 20
262 0 12
205 9 11
383 16 12
101 10 7
363 6 22
318 16 7
329 16 20
398 12 4
433 2 17
170 10 15
164 6 16
355 15 4
345 0 3
76 16 28
317 15 21
261 4 15
103 0 8
235 10 24
277 16 8
499 14 4
451 3 14
255 4 11
438 1 13
255 8 5
410 15 17
478 3 1
342 15 16
135 1 25
456 4 20
431 16 17
350 16 0
39 7 16
189 0 3
359 8 6
408 1 13
326 0 1
490 4 26
395 4 21
195 9 14
385 10 28
234 3 28
63 14 15
70 8 0
378 16 20
318 9 17
452 4 18
354 10 14
38 10 16
339 8 2
484 5 28
113 10 9
28 12 16
396 7 15
362 7 3
233 15 14
487 10 15
130 3 11
382 10 25
191 1 16
41 13 25
216 11 21
444 12 0
80 0 22
132 6 1
166 16 5
185 14 2
32 15 9
208 2 8
422 11 21
334 15 5
337 2 22
368 14 27
328 15 15
452 4 3
179 13 14
256 8 12
221 8 16
404 1 7
13 12 2
65 0 3
488 15 17
491 5 2
260 14 25
160 4 9
61 10 2
326 1 6
102 8 1
466 1 2
461 8 9
133 13 11
291 10 6
362 0 19
102 12 7
306 14 21
21 2 26
480 16 26
232 16 27
163 7 6
8 8 27
399 8 24
458 3 14
465 7 9
87 12 11
388 14 7
476 6 14
407 9 28
230 2 9
434 15 21
230 3 3
380 2 15
19 1 0
454 14 3
343 14 21
475 16 10
256 11 4
193 9 17
311 0 20
278 9 13
475 14 25
438 9 14
41 16 19
162 0 12
293 13 7
313 2 6
482 13 24
393 4 19
120 7 1
26 15 18
187 9 15
499 9 7
411 5 8
92 3 16
280 4 15
469 12 13
225 12 15
150 14 12
447 16 18
471 7 17
34 7 6
143 13 17
153 7 26
430 16 4
294 9 17
231 6 3
457 6 10
382 12 10
461 6 10
462 1 13
394 13 2
200 14 4
229 6 0
317 2 16
19 9 28
377 11 19
416 4 27
396 3 26
357 7 23
179 13 25
21 0 19
130 14 13
85 16 28
128 9 3
134 16 8
17 10 7
454 2 9
377 3 12
473 15 17
23 11 3
19 2 0
168 2 9
471 0 14
407 6 9
433 3 9
206 3 27
453 15 24
339 4 13
140 4 6
382 9 25
53 4 21
345 13 25
441 13 1
424 5 6
185 14 23
177 15 10
51 9 10
163 10 18
452 11 3
403 4 16
358 10 0
241 5 14
63 14 26
65 10 8
241 15 7
209 4 1
393 1 27
445 11 19
425 16 13
73 14 19
0 12 8
40 13 7
474 4 2
493 14 8
493 0 27
36 16 20
145 15 9
459 10 24
307 15 18
133 0 3
459 14 27
376 8 3
34 1 15
254 13 26
466 14 13
136 1 3
109 10 21
259 3 2
300 2 5
381 11 17
262 3 0
413 4 13
253 11 1
259 13 19
279 15 21
18 3 19
226 13 4
130 11 19
222 12 8
184 8 14
25 11 23
293 2 5
420 13 16
397 3 26
106 15 21
423 7 14
121 5 26
130 12 28
494 3 15
46 12 24
364 4 14
380 10 22
240 0 1
487 16 16
223 10 28
145 15 13
367 9 14
371 9 26
212 5 21
466 4 5
437 12 8
370 4 20
278 14 15
298 1 9
439 3 1
13 2 19
399 1 24
90 13 27
370 8 12
4 16 25
477 1 8
83 12 12
468 16 5
124 1 18
293 7 18
455 12 10
214 12 6
409 7 21
446 7 4
79 9 27
322 1 4
422 6 26
325 9 24
265 15 26
65 2 28
67 9 2
260 15 10
9 2 11
422 5 10
16 11 7
153 4 25
366 15 10
141 12 25
444 11 28
0 3 28
215 5 10
449 1 26
384 4 24
347 5 21
296 11 4
260 9 20
170 11 27
334 9 28
29 6 2
348 8 19
4 3 4
123 5 0
240 12 4
107 7 4
378 6 19
131 10 2
60 8 19
102 0 4
144 2 8
88 6 20
384 0 16
277 5 1
195 3 22
106 1 28
378 15 16
294 7 11
313 1 10
32 0 14
191 10 11
99 9 15
393 16 5
2 11 5
112 11 5
447 11 0
357 3 18
244 6 18
66 3 27
240 16 12
195 11 11
287 10 12
449 13 28
145 10 14
223 7 14
361 8 11
439 3 27
100 13 17
234 6 22
407 13 15
42 4 24
439 10 1
373 13 3
245 5 0
250 3 17
474 2 11
175 2 5
43 12 3
324 0 23
29 14 3
350 12 0
398 13 7
338 6 11
5 14 6
487 15 27
425 3 16
227 10 26
230 8 16
16 14 16
405 1 17
243 16 23
415 8 0
373 16 5
155 3 19
308 13 19
221 9 26
424 7 0
401 10 24
407 13 18
18 11 28
360 5 9
77 10 25
281 8 14
72 15 28
368 0 20
83 15 11
286 14 14
13 14 4
39 11 3
172 7 2
456 13 23
53 10 6
72 3 17
245 0 1
366 16 16
62 4 10
468 2 21
482 11 28
85 8 2
227 9 6
47 3 4
339 2 10
84 12 23
144 4 22
222 14 14
72 2 23
110 9 17
319 7 13
99 3 18
84 11 17
161 13 11
190 16 3
111 16 12
14 8 0
321 15 4
372 4 24
492 10 12
87 9 7
334 7 14
8 2 8
45 10 20
414 16 7
423 13 8
179 6 13
271 8 1
9 12 0
0 12 11
481 7 18
57 16 25
457 7 23
1 10 20
3 0 12
239 6 2
254 3 13
261 3 22
45 2 25
489 15 26
496 13 26
398 10 7
68 3 21
93 6 22
197 3 7
381 3 13
456 12 6
323 13 1
162 7 11
498 15 23
344 4 0
209 6 20
435 12 23
146 11 15
333 7 20
176 15 11
11 7 27
414 0 25
100 11 22
93 5 26
75 7 18
127 12 16
479 5 8
453 6 12
202 11 0
80 1 6
252 9 6
482 4 2
50 16 7
359 7 6
496 8 9
147 0 9
204 7 3
257 15 27
477 7 13
103 15 16
470 1 17
413 9 11
164 1 25
305 16 0
33 3 25
436 13 26
124 15 19
85 0 2
0 11 27
389 5 6
116 10 2
144 13 0
26 2 15
154 14 6
392 0 7
36 11 7
271 1 16
301 9 26
283 11 23
328 6 11
142 4 28
214 1 16
302 16 7
267 15 28
324 16 22
377 9 12
130 5 4
394 5 27
293 11 15
306 14 1
439 14 16
175 9 18
81 11 20
267 0 25
168 3 2
345 8 24
211 4 27
46 15 7
482 10 14
286 5 5
352 14 11
146 5 25
246 2 3
387 12 20
341 7 11
412 1 25
15 8 3
448 2 23
373 15 22
237 9 14
125 8 4
333 9 13
270 13 20
85 8 1
116 9 24
187 7 19
367 13 26
230 14 8
340 2 4
158 3 8
182 6 7
207 1 24
230 11 2
211 5 6
150 15 27
115 9 25
331 4 6
207 3 1
351 12 15
31 6 8
321 0 26
82 3 19
256 7 19
411 13 16
369 3 10
69 8 26
160 0 26
491 15 9
310 4 19
30 16 24
99 14 14
316 10 17
248 14 18
96 5 9
150 8 18
166 1 14
287 15 26
435 15 2
167 15 5
245 10 12
274 1 2
89 4 7
108 9 15
159 12 16
8 4 5
461 15 3
246 1 25
295 10 13
23 10 2
131 10 25
177 10 2
381 3 21
177 0 26
342 6 8
170 11 27
96 15 0
388 7 7
79 2 11
5 12 15
236 15 1
4 1 13
332 11 4
114 1 7
82 4 21
401 14 28
220 12 10
418 6 20
215 11 5
42 14 3
309 6 9
406 13 1
165 9 6
341 14 17
68 7 0
130 5 13
402 6 10
315 9 5
27 7 19
380 14 12
309 5 28
123 12 22
333 16 12
484 5 19
377 5 24
218 16 5
38 12 26
250 13 7
23 1 18
465 16 2
37 16 8
220 11 19
30 0 14
202 12 3
260 9 5
29 7 21
245 13 15
340 11 8
284 14 24
277 0 13
283 14 25
240 11 18
205 15 14
463 14 17
143 3 20
205 11 4
199 15 3
126 2 7
213 15 13
74 7 15
363 9 25
11 9 21
323 8 28
16 0 26
8 5 16
137 4 20
87 9 9
244 8 0
243 1 11
347 13 10
430 13 16
20 13 1
284 9 1
469 0 22
297 10 28
396 12 11
66 2 26
398 0 0
176 0 25
332 9 1
346 5 24
4 15 26
208 2 19
375 15 10
123 12 22
408 6 22
252 7 16
291 7 5
315 2 12
296 11 3
410 10 25
94 10 23
276 8 7
41 11 5
165 8 5
96 2 11
325 9 3
71 6 8
368 9 8
190 10 10
133 7 22
6 15 24
470 10 20
228 2 9
393 11 12
237 6 8
496 6 24
460 7 6
359 11 27
223 9 11
412 7 25
148 16 5
439 9 8
443 1 16
118 15 6
71 7 23
163 14 14
13 12 5
474 3 9
278 11 28
475 13 3
159 11 7
347 1 21
63 9 22
423 16 27
320 8 12
330 7 14
265 11 16
431 3 17
291 4 25
369 0 12
123 9 23
483 8 3
469 1 26
208 8 16
26 2 23
159 8 14
327 4 20
130 8 10
149 0 19
96 15 12
450 16 11
154 3 22
69 4 27
73 13 26
11 5 13
429 8 17
87 7 4
27 8 28
239 3 9
207 11 2
106 3 22
463 15 19
55 3 25
421 9 28
53 12 9
312 2 18
140 7 13
475 0 2
433 4 5
449 11 13
375 7 16
26 5 20
242 15 16
172 5 16
170 5 21
124 3 12
105 3 14
106 4 20
364 11 14
237 8 23
102 9 26
87 0 1
471 16 24
268 0 3
384 15 0
234 1 7
193 2 4
346 0 10
313 7 4
20 13 19
246 15 10
264 0 20
471 13 17
291 11 27
142 8 8
65 6 17
22 4 13
304 12 15
241 10 12
423 9 9
16 14 8
478 0 26
468 15 26
62 15 18
378 12 15
180 12 10
244 9 2
113 15 5
417 8 1
485 12 24
295 10 4
396 4 9
342 13 8
493 12 5
121 7 23
280 6 16
389 9 12
385 1 22
47 11 21
365 10 13
273 5 8
47 16 3
389 2 7
371 11 22
328 9 12
198 10 3
403 15 21
253 7 14
306 1 9
111 0 16
308 8 25
159 1 20
441 3 13
95 3 0
286 7 28
493 1 7
498 4 5
86 12 23
15 11 16
482 12 16
169 13 6
271 12 26
383 7 7
225 1 1
272 7 9
326 6 20
183 14 20
386 4 0
388 14 19
466 7 19
199 14 23
269 3 10
125 4 17
114 2 24
216 15 21
168 2 15
389 3 4
149 9 20
137 2 13
497 0 16
126 2 6
296 12 4
469 15 13
333 2 28
139 6 16
353 14 19
117 10 10
122 15 25
200 0 19
75 4 7
7 10 15
454 1 26
328 6 15
168 7 11
215 8 8
381 11 2
181 0 16
452 10 1
385 1 2
441 7 17
193 9 15
392 5 28
345 3 12
130 10 27
156 14 23
330 9 17
474 5 10
209 1 26
123 0 14
335 7 13
466 0 23
348 12 16
87 0 18
275 2 6
301 5 5
259 1 3
51 5 26
281 6 17
318 9 6
42 8 13
214 0 23
430 4 5
436 0 4
166 7 7
117 0 11
107 4 28
197 10 24
60 1 13
238 13 24
85 13 7
399 9 25
467 3 16
122 8 9
57 14 17
254 2 7
312 11 16
290 14 8
405 7 2
101 8 8
462 6 18
260 1 3
174 11 17
330 9 1
397 10 8
175 5 3
314 2 13
323 9 11
415 13 8
127 2 3
384 15 9
316 3 4
133 12 7
403 8 0
38 11 5
217 13 8
166 7 11
19 3 6
242 14 21
55 10 13
495 14 5
497 0 1
294 12 28
342 0 5
149 9 13
5 8 17
329 13 7
263 10 11
464 16 28
81 7 1
150 0 5
234 4 18
310 14 0
284 11 15
311 13 16
491 16 15
273 1 13
260 3 10
32 15 27
1 13 15
444 12 23
322 1 8
146 8 7
110 2 7
66 8 2
265 1 9
384 10 23
457 10 17
421 13 22
273 16 5
457 3 2
336 9 21
463 13 5
392 10 5
497 11 12
279 13 13
335 1 0
176 10 11
55 13 13
281 5 15
28 16 14
218 2 21
480 10 21
204 11 4
50 11 5
439 16 4
116 9 5
31 13 17
144 15 22
94 15 8
398 5 14
246 15 13
151 3 8
101 6 26
25 13 15
267 11 7
301 8 4
428 11 14
59 0 22
460 0 16
308 8 17
376 16 12
362 9 21
408 14 8
275 2 12
244 7 13
465 8 9
218 8 10
40 0 1
478 15 3
56 2 17
284 11 22
231 3 21
20 14 17
408 7 22
36 9 11
392 1 25
226 10 10
189 2 17
352 9 17
219 5 24
311 6 24
233 12 9
414 16 5
7 0 12
435 6 23
457 5 7
426 14 9
86 6 4
155 7 25
253 15 24
224 13 8
120 8 21
84 4 27
292 6 21
456 14 20
283 10 20
253 0 5
320 9 2
113 5 25
441 6 22
261 7 16
131 16 24
323 13 25
91 15 27
441 10 16
50 12 9
452 12 21
460 6 16
404 12 8
352 16 7
176 3 27
244 15 6
430 8 6
210 16 12
307 12 2
147 9 7
305 8 6
355 4 7
296 5 3
459 9 5
339 0 12
258 5 25
444 6 23
63 1 22
409 11 19
310 6 14
489 5 18
380 3 23
4 16 25
36 11 17
363 15 4
378 9 13
386 8 27
57 2 6
16 8 0
418 4 20
68 0 5
125 15 16
370 1 5
293 2 13
491 4 1
157 9 28
47 12 27
4 12 14
352 13 19
355 7 7
172 2 21
368 0 26
198 4 21
106 12 5
156 9 24
246 8 25
10 6 23
467 6 24
9 6 23
259 9 28
122 8 10
206 10 18
336 3 20
494 6 16
464 8 1
437 4 12
312 6 21
358 13 19
218 5 22
85 6 16
52 4 25
305 7 1
119 13 20
452 4 20
401 4 20
344 0 12
260 6 19
380 14 24
328 7 2
324 0 4
359 13 18
43 16 23
201 15 0
133 2 22
109 3 13
76 6 18
355 10 6
65 7 6
327 10 7
377 2 20
4 3 22
241 6 9
253 12 19
494 6 8
143 9 16
96 14 19
483 12 15
202 3 17
251 2 8
50 16 1
131 5 1
443 16 18
191 6 19
139 5 15
447 2 27
452 0 1
352 0 23
480 13 1
245 3 27
27 0 8
201 12 21
69 10 16
119 12 19
1 16 22
31 15 28
69 4 12
42 1 21
108 14 25
314 7 14
318 10 22
83 6 21
82 11 16
209 4 28
459 2 15
86 12 6
417 3 21
380 12 27
193 16 22
293 10 4
358 14 24
415 4 26
287 7 17
8 15 4
336 3 24
263 11 6
95 14 2
36 8 11
147 11 27
226 0 27
480 5 19
236 3 21
328 9 4
171 5 10
140 12 6
180 13 14
309 7 9
245 11 3
466 7 18
8 8 12
18 7 3
21 6 13
200 16 11
205 9 22
282 1 17
99 0 12
276 10 28
168 11 13
443 15 21
335 3 15
334 4 14
10 0 28
285 4 11
483 1 23
67 5 12
239 10 22
448 16 16
168 14 21
134 12 4
3 11 4
162 8 25
222 14 7
41 13 6
280 8 18
239 0 14
61 1 11
481 13 11
475 14 27
397 12 7
371 1 0
279 6 11
25 5 19
104 2 10
38 14 9
195 10 16
252 4 15
277 9 0
346 12 27
468 12 22
299 3 22
270 9 8
119 11 28
104 11 12
133 7 4
215 12 1
83 9 15
51 7 25
221 1 3
434 16 28
376 4 28
11 10 17
99 14 0
222 15 10
233 0 18
272 6 11
185 12 6
445 8 22
17 0 8
72 13 12
317 12 1
48 13 27
383 7 18
126 5 25
120 8 1
135 15 11
495 10 25
74 4 3
415 2 26
468 2 5
315 12 0
227 8 20
39 8 9
317 8 20
159 2 2
129 11 2
42 6 0
230 5 6
284 0 26
67 1 13
360 15 19
432 11 1
429 14 8
267 1 21
207 6 10
154 5 28
347 1 24
194 7 18
13 3 26
356 2 21
2 8 16
432 0 15
406 16 24
396 1 8
200 11 3
291 5 13
328 16 17
361 4 26
93 7 13
398 12 9
19 0 10
359 0 13
67 4 28
157 0 7
207 5 9
234 5 19
207 10 15
75 16 27
1 1 28
266 8 25
104 4 28
102 6 27
70 15 10
51 6 17
437 6 12
231 9 11
343 2 7
387 1 14
348 9 6
246 7 1
86 13 1
107 8 13
301 14 21
122 5 28
320 1 20
425 11 25
186 16 28
220 15 22
192 11 17
5 10 11
103 10 25
18 10 27
21 2 28
52 6 10
359 7 27
277 12 19
378 2 22
395 15 6
331 9 2
143 13 13
158 10 18
108 2 18
5 8 3
312 15 7
271 15 14
380 0 9
82 6 22
25 5 22
156 3 11
452 12 18
217 13 2
278 1 11
484 13 24
64 4 11
21 15 7
240 10 25
24 5 27
474 15 23
149 0 25
24 4 17
260 15 25
269 1 4
368 2 11
72 7 6
12 16 16
256 7 11
144 8 22
22 0 23
385 14 16
403 8 19
424 6 15
78 10 0
42 16 21
395 15 16
392 7 26
13 16 16
393 14 22
483 6 17
116 15 2
56 10 17
426 16 2
481 9 6
126 2 9
56 0 6
44 5 12
315 8 6
86 7 20
422 9 10
363 11 5
230 15 19
345 1 25
478 6 27
91 13 16
331 9 8
299 13 27
489 10 23
213 6 13
277 6 6
68 8 0
237 9 10
319 0 15
86 5 19
195 15 19
161 7 26
65 13 3
115 11 12
119 4 6
189 9 5
372 11 8
402 0 24
361 13 22
23 9 27
70 5 9
206 2 5
447 16 22
259 5 21
361 15 22
177 8 3
242 10 16
345 15 14
66 2 3
234 3 23
474 12 3
21 11 27
251 9 4
345 13 24
378 0 24
486 7 23
482 10 21
24 5 16
474 8 2
185 16 15
29 13 10
498 3 6
175 16 8
213 9 14
23 13 24
109 0 14
483 8 5
485 3 19
153 8 16
154 4 2
209 10 20
412 2 13
133 3 19
463 16 16
245 10 25
480 16 25
288 12 23
193 14 11
56 11 13
224 0 8
244 7 15
377 13 0
181 0 6
256 5 2
314 11 18
442 2 15
157 0 28
71 1 23
306 1 2
9 11 6
400 7 4
40 3 12
122 13 18
420 0 18
216 14 6
93 11 28
93 4 1
71 1 19
227 3 5
211 3 24
189 7 12
233 1 10
123 11 7
0 4 5
296 3 12
188 7 12
279 2 27
226 2 5
435 7 8
133 4 23
414 1 28
315 9 21
393 1 11
403 3 20
57 9 26
451 3 27
360 8 7
230 13 0
260 9 21
37 10 24
308 11 23
344 8 0
79 6 2
392 4 22
462 5 24
361 16 15
490 12 8
201 16 16
337 8 28
44 4 10
40 16 26
341 6 16
440 13 3
110 7 11
136 14 8
350 10 16
371 16 13
420 1 25
7 15 0
420 3 1
171 7 26
492 16 11
23 9 18
410 10 21
390 9 25
406 10 25
137 4 7
36 10 9
479 10 23
293 12 22
381 4 1
470 1 9
240 10 25
242 3 27
440 3 16
245 4 26
172 4 9
55 9 26
488 4 9
475 16 12
198 8 3
423 13 17
55 12 8
14 3 2
373 12 10
232 13 25
351 13 8
318 15 18
305 9 8
298 8 6
78 16 25
396 10 14
123 10 6
495 3 17
410 0 3
342 9 5
494 1 4
332 8 2
404 10 16
107 13 7
268 9 9
190 12 1
281 5 9
243 4 7
491 4 25
20 0 28
106 12 2
16 10 1
133 16 11
462 7 2
23 2 6
392 7 18
2 3 0
456 3 0
351 14 14
32 15 20
466 13 3
24 10 5
442 16 4
47 12 22
175 8 2
64 2 21
341 6 4
404 1 6
173 6 19
89 10 2
423 9 0
482 4 26
348 11 20
480 0 13
282 7 11
423 5 27
332 16 9
460 4 27
295 13 14
20 15 0
80 9 1
94 4 8
397 13 23
37 11 27
481 8 4
271 11 18
227 6 24
468 13 8
460 5 12
241 10 23
453 3 0
361 3 0
200 5 26
385 0 18
153 5 9
468 9 23
193 7 20
60 10 23
336 4 4
108 4 20
465 13 17
451 1 27
229 8 27
242 0 20
478 3 28
0 13 22
145 2 17
408 10 23
282 12 19
117 10 12
328 4 0
251 12 11
160 10 8
483 3 28
326 2 20
53 0 6
113 7 19
396 9 16
54 1 3
259 11 11
162 7 4
229 10 20
329 2 16
133 9 23
69 15 14
193 14 9
298 12 23
304 10 1
203 7 16
231 7 27
300 9 28
85 1 0
398 8 8
483 14 13
317 4 17
71 6 8
293 6 21
391 16 9
310 8 9
148 11 14
241 9 19
149 12 7
354 2 25
177 4 20
16 15 3
307 2 11
105 10 15
224 7 0
183 15 25
477 9 3
277 10 26
358 1 25
84 14 5
221 6 1
394 8 4
140 1 0
71 3 3
301 13 4
261 9 0
63 3 9
181 15 21
123 4 18
166 4 15
327 10 1
129 11 23
314 3 12
495 10 18
458 6 11
84 13 21
7 2 27
39 13 26
396 2 22
335 6 26
25 7 0
416 8 15
329 14 19
67 4 19
287 8 22
138 12 22
124 12 10
101 11 16
381 9 27
489 8 5
399 9 19
84 13 21
371 10 22
10 6 0
342 6 25
214 13 11
40 5 26
499 1 28
46 7 23
238 10 0
383 10 16
62 3 11
241 0 8
74 1 5
299 14 23
391 8 21
430 6 17
25 13 27
51 8 3
39 11 0
68 4 21
202 3 15
187 6 3
131 0 0
25 13 15
363 12 23
248 10 17
25 3 20
240 15 24
38 1 14
203 8 27
104 10 26
54 16 19
402 5 0
184 7 10
481 8 19
362 15 20
12 9 9
215 9 4
35 1 6
341 5 4
116 9 20
260 2 11
311 5 0
145 10 1
406 2 10
22 13 28
455 0 17
56 4 16
173 9 14
81 13 25
465 5 15
242 16 16
484 1 27
57 12 23
184 6 24
373 7 26
88 15 27
114 14 10
62 10 11
475 2 23
419 16 6
262 13 12
356 13 28
36 7 20
162 4 12
16 9 26
58 0 27
486 10 3
488 5 7
112 8 8
466 3 21
326 13 15
190 1 25
106 8 27
432 6 15
275 15 6
55 12 3
289 3 18
456 7 28
440 2 23
467 1 16
2 2 24
414 6 19
162 15 21
334 3 28
29 12 5
331 9 1
270 12 26
60 9 4
411 9 17
241 7 17
145 12 9
431 14 7
106 0 28
300 5 11
94 12 14
369 5 17
75 2 2
437 9 24
164 2 26
173 0 0
488 13 17
456 11 3
167 9 14
469 0 4
371 5 0
137 1 26
277 7 14
212 6 3
138 9 22
484 5 15
228 11 24
231 4 16
74 4 6
431 14 23
237 3 25
411 12 24
478 2 4
397 9 5
403 12 1
228 11 5
268 3 0
247 4 26
480 0 3
16 13 28
9 0 14
311 7 4
17 13 24
413 16 5
421 16 1
260 1 21
12 12 2
106 11 21
81 1 4
243 9 10
320 5 2
93 4 25
111 3 18
336 5 24
214 0 5
322 2 28
328 10 21
448 6 2
105 12 3
170 12 1
407 7 21
3 4 19
38 11 23
382 16 4
253 10 13
279 16 8
246 5 11
173 14 11
414 3 7
462 7 19
123 11 20
374 5 19
469 16 7
83 14 7
136 0 11
65 10 0
466 4 20
113 1 5
309 5 22
331 5 28
103 8 22
133 8 1
29 12 22
336 4 26
480 16 21
133 9 22
62 8 11
89 13 5
349 6 5
79 9 10
292 11 1
372 0 17
463 6 22
67 10 6
301 14 17
422 4 27
180 9 18
443 16 27
64 3 11
112 14 22
179 15 6
463 7 27
133 5 5
463 13 15
214 3 24
133 5 21
317 4 22
481 7 3
471 12 10
28 9 0
497 7 12
404 2 21
245 1 8
3 14 8
328 3 14
104 11 26
235 2 13
328 9 28
212 14 23
476 8 0
416 1 2
428 16 4
53 5 0
307 8 2
55 5 8
1 4 21
426 14 14
215 2 16
62 1 1
426 12 8
410 2 27
392 11 0
498 15 20
22 9 17
482 14 12
0 15 16
197 7 4
296 12 18
468 12 17
196 6 15
52 11 0
484 15 11
184 6 18
386 6 9
172 10 5
299 13 20
40 0 19
437 9 0
234 9 27
415 14 11
467 6 28
204 1 23
470 6 24
366 15 7
189 13 9
330 5 11
350 1 20
130 3 20
476 7 27
450 1 25
178 2 28
336 13 26
126 9 12
494 14 10
403 9 21
107 1 9
57 4 0
459 0 21
98 8 13
227 6 28
33 15 11
133 4 17
173 15 6
402 16 20
140 14 6
347 6 13
26 11 24
39 1 11
278 9 3
8 3 4
439 15 13
86 15 23
46 5 0
249 15 19
179 15 0
83 0 13
40 10 6
178 7 18
363 15 5
225 11 24
181 0 17
328 12 28
285 7 12
350 10 26
344 0 18
31 1 21
32 6 9
382 5 12
157 10 5
71 1 25
323 11 7
404 9 24
499 14 19
93 12 20
154 11 2
150 0 16
301 6 3
364 9 8
427 10 15
311 3 28
441 14 4
121 4 23
410 15 10
225 5 22
81 1 23
347 1 18
438 15 19
91 16 17
485 10 27
469 11 1
462 11 10
2 7 6
432 10 8
53 12 14
114 5 8
216 5 27
484 13 25
250 9 22
120 14 17
203 7 4
498 4 27
326 11 20
5 6 15
124 16 9
389 15 25
263 6 10
162 14 9
42 13 26
266 1 17
23 5 9
472 7 6
272 6 18
220 15 14
213 14 2
310 6 1
414 7 16
119 4 27
493 1 18
367 9 1
222 11 16
444 4 19
207 12 28
368 11 12
120 13 4
286 16 4
341 15 10
375 1 7
252 11 6
256 0 24
30 9 17
8 8 22
125 10 10
208 10 28
472 14 25
4 5 12
2 5 15
265 14 11
211 7 7
218 12 5
336 10 25
298 12 2
417 5 12
231 16 23
152 9 0
94 12 11
356 3 23
404 16 28
428 11 6
120 11 19
436 0 13
315 10 23
129 6 4
374 2 16
275 0 26
151 11 7
188 7 4
462 5 10
412 0 26
254 12 25
347 3 10
158 16 22
384 15 4
135 15 1
396 16 22
328 2 17
13 4 26
404 8 14
477 10 17
231 14 17
389 0 7
194 2 16
236 0 28
324 11 4
146 1 28
254 16 0
248 4 9
330 2 12
253 0 11
59 10 20
239 6 17
458 1 27
187 12 23
356 13 26
283 5 7
271 6 18
443 14 15
235 2 7
255 7 2
346 12 12
498 2 26
413 16 13
459 2 16
478 9 6
456 11 24
43 9 25
461 9 24
317 9 27
212 3 3
20 2 19
305 1 17
428 5 23
131 1 7
314 7 25
392 3 25
436 0 18
319 7 16
67 11 8
430 14 6
488 12 23
241 5 24
242 0 26
14 13 7
424 10 15
13 5 9
290 6 19
478 2 22
171 8 28
360 6 16
395 15 10
320 7 1
484 13 1
335 1 14
489 5 7
118 6 16
293 11 9
23 3 25
377 0 17
459 6 23
44 12 22
91 8 25
389 13 3
66 2 20
35 5 7
154 9 12
153 9 3
398 12 16
389 7 15
53 0 9
171 5 1
137 6 26
411 2 0
287 5 27
23 0 8
115 3 17
218 5 20
437 14 14
146 11 19
326 9 17
149 4 16
61 10 0
255 5 3
324 7 11
91 12 1
169 1 4
100 0 7
422 9 15
469 1 18
496 5 28
382 14 23
224 7 18
294 10 17
428 9 10
279 3 11
157 6 2
272 1 5
58 15 28
139 14 26
293 10 8
103 3 3
472 14 20
45 12 13
379 8 5
237 14 3
495 12 28
72 8 19
100 14 20
458 8 19
242 11 18
177 5 25
261 8 19
319 0 9
461 4 25
295 5 20
155 16 21
42 6 15
253 3 23
335 3 8
43 0 6
159 8 2
419 0 16
403 12 0
288 11 2
266 5 16
259 5 17
180 7 10
297 9 26
397 6 21
326 11 9
48 4 12
64 5 16
161 4 22
208 14 16
144 11 14
235 12 7
388 3 15
98 9 28
162 3 25
221 14 13
175 10 3
470 13 1
363 5 17
37 3 26
333 7 4
359 15 11
342 5 22
145 0 28
378 6 21
348 12 22
265 10 1
219 12 27
310 8 5
467 11 20
390 2 27
375 15 19
73 2 17
379 7 16
312 14 4
24 13 11
208 4 0
323 2 27
13 2 10
140 13 4
311 5 4
402 16 4
400 9 1
356 1 25
79 8 6
465 0 15
168 2 26
426 4 15
313 5 17
417 15 26
412 14 10
228 16 8
384 9 26
439 2 25
78 3 19
73 16 7
304 14 6
224 15 21
434 14 0
261 7 11
152 8 23
449 1 2
393 14 9
406 16 20
242 7 8
340 0 4
121 16 10
199 3 21
41 3 4
297 6 15
13 9 3
398 6 3
464 8 3
200 5 3
221 9 21
461 8 9
312 15 16
96 13 26
64 0 22
359 3 10
232 2 8
140 1 6
257 6 5
228 6 21
203 12 11
263 1 25
34 8 5
162 11 1
188 10 17
156 4 23
363 3 14
50 10 25
208 14 7
308 3 1
62 6 27
497 12 5
214 12 27
451 13 2
277 11 23
0 5 3
272 3 4
381 5 26
382 13 15
158 16 20
197 12 18
259 2 13
492 11 1
343 6 11
379 6 10
123 13 1
429 15 17
358 11 2
205 2 2
453 3 28
59 10 7
251 4 7
59 14 11
281 16 28
96 2 24
81 7 27
64 1 23
429 1 11
51 14 20
37 5 5
290 13 12
117 7 16
151 6 20
460 15 0
343 11 15
280 0 27
180 0 19
427 11 25
315 6 0
87 13 0
304 16 2
187 13 16
249 10 28
242 11 18
74 10 9
362 1 11
361 15 26
312 6 13
440 11 16
458 10 20
418 2 18
427 9 28
204 9 6
334 8 24
262 2 15
322 10 28
498 9 17
444 0 0
127 6 26
336 1 12
472 10 16
243 7 19
498 7 15
84 7 7
14 10 18
300 1 19
400 2 23
154 11 9
455 7 12
300 1 5
125 8 17
313 5 27
316 8 26
196 11 13
23 2 18
320 3 12
306 16 21
450 8 3
126 5 27
64 1 9
378 2 26
387 16 26
473 6 5
392 0 26
306 7 28
330 5 15
160 2 15
100 14 21
327 13 1
311 11 11
239 4 5
177 13 3
77 2 27
259 9 3
220 14 7
49 5 10
108 12 22
221 0 17
66 1 3
154 1 17
453 8 27
260 10 9
193 9 25
338 5 26
306 7 16
343 12 15
89 4 5
172 4 1
1 15 5
108 5 28
334 5 18
408 15 14
126 6 1
70 10 4
385 2 22
435 2 13
204 13 22
416 2 9
141 16 28
210 3 10
22 5 12
186 0 17
426 1 5
259 16 4
295 15 12
249 13 26
135 15 23
485 6 23
489 6 6
119 5 25
440 9 18
122 6 3
253 3 10
268 9 18
51 0 18
325 1 9
13 3 9
230 11 4
177 6 14
485 3 2
452 9 16
408 13 22
432 8 18
9 1 13
166 4 9
127 6 21
83 12 3
401 0 2
465 7 4
87 8 8
130 15 14
131 2 28
372 4 13
18 4 10
375 14 16
399 5 15
29 16 15
443 4 25
210 7 22
498 5 3
318 6 5
87 7 10
32 14 3
158 3 0
158 11 4
104 3 10
271 12 20
318 12 18
27 16 26
404 9 27
185 9 18
454 11 15
424 10 12
494 0 24
158 5 1
165 3 7
84 13 9
374 16 18
410 14 17
392 4 4
383 7 1
161 2 13
93 13 15
226 14 28
20 0 14
205 15 21
440 4 7
419 13 20
161 4 14
144 7 12
203 0 6
327 1 13
356 5 0
412 16 20
269 4 4
118 10 13
202 6 5
370 5 24
463 15 23
247 0 15
292 2 22
359 15 23
171 9 25
281 5 21
164 12 8
76 13 4
38 3 12
306 4 20
66 0 15
321 3 18
124 2 11
270 1 0
476 1 19
272 2 27
34 12 16
238 7 24
459 12 11
85 16 28
138 9 10
152 4 14
47 10 15
226 14 12
157 6 21
342 2 20
463 1 1
79 4 9
488 7 25
116 9 10
140 15 15
488 12 12
275 2 18
421 14 23
100 15 24
33 13 25
361 12 18
176 14 14
391 3 11
440 8 1
386 8 21
494 6 5
400 14 19
174 12 8
397 6 8
153 5 22
490 15 17
379 10 23
498 6 2
294 13 3
33 0 20
445 0 18
151 11 5
436 13 2
23 6 14
131 6 8
409 15 6
48 0 7
106 6 20
265 14 11
445 15 8
24 3 17
459 6 21
200 7 13
395 7 24
34 11 11
99 12 17
310 11 18
142 1 17
358 1 26
303 2 26
437 5 14
306 3 13
425 4 19
476 6 13
334 3 25
314 10 24
417 6 15
400 15 21
258 0 5
66 9 11
405 11 17
440 14 12
17 15 15
323 3 7
118 7 2
399 13 6
374 16 28
80 0 3
82 14 6
348 0 15
344 1 25
306 9 28
474 10 27
368 16 15
67 11 8
51 4 2
164 15 10
284 14 6
18 7 22
67 4 18
51 15 17
73 7 21
492 2 24
192 8 15
427 13 26
285 10 21
397 3 14
374 16 6
197 3 6
403 1 6
6 16 5
360 12 25
464 9 5
225 15 8
477 2 20
164 7 7
54 6 14
461 15 9
37 15 25
85 14 10
215 14 10
357 12 4
386 3 13
153 4 7
353 4 1
306 3 2
473 15 9
8 5 24
268 13 26
5 12 9
431 8 6
352 8 23
491 5 12
353 10 18
99 9 3
225 5 6
461 3 4
420 10 9
156 3 0
491 12 12
384 6 21
426 14 19
43 3 27
41 10 23
247 15 26
291 4 13
446 7 16
348 1 3
105 15 20
474 7 5
274 7 27
125 11 6
347 11 1
402 6 6
155 8 18
482 2 6
307 2 13
436 13 25
121 14 27
72 14 20
190 6 12
461 10 6
270 10 6
378 14 11
418 4 21
268 3 8
321 12 21
378 8 12
123 16 11
76 8 7
97 13 28
493 3 0
127 16 22
121 14 27
105 13 17
309 4 11
411 15 26
386 10 22
492 2 19
211 13 28
143 5 12
178 15 4
311 8 20
190 7 15
16 6 9
352 13 14
111 3 18
202 7 16
239 0 18
150 13 18
34 5 15
88 5 2
154 8 10
206 1 21
199 1 7
189 13 24
83 15 8
424 5 0
293 11 21
410 12 10
138 2 6
49 4 16
403 7 24
122 16 12
335 11 27
367 0 5
250 14 10
402 3 25
498 9 16
114 1 16
128 0 26
256 10 4
45 0 26
289 11 6
443 9 3
60 2 14
389 4 24
180 13 23
409 8 12
137 8 20
311 2 23
64 8 14
55 6 17
438 13 11
268 14 11
141 5 8
328 10 2
493 9 25
241 8 4
399 13 4
221 1 15
370 10 22
366 13 24
235 0 10
452 7 18
32 13 17
173 14 23
269 8 28
359 15 11
99 6 10
433 12 8
430 6 24
311 4 13
147 6 6
197 8 18
2 12 11
33 15 19
305 8 25
267 14 25
459 3 3
399 9 24
25 13 24
443 4 7
22 8 25
348 4 14
45 10 1
22 0 8
22 16 25
212 7 22
164 16 9
158 4 24
251 7 22
379 6 5
98 12 24
299 9 4
134 15 24
316 4 10
295 6 9
64 4 21
160 13 4
130 8 26
216 1 27
22 2 19
138 9 3
444 8 19
216 7 23
494 5 16
486 15 11
17 9 11
282 5 21
84 3 12
363 16 10
127 6 10
18 0 22
310 13 2
95 9 17
397 7 22
370 8 9
290 5 28
456 4 2
354 2 15
237 9 8
107 8 6
13 11 22
114 9 5
220 8 4
64 5 19
348 1 10
265 1 17
395 12 2
189 6 1
98 9 26
82 7 3
110 16 20
455 6 14
396 7 14
377 15 7
454 16 27
337 1 1
387 14 23
402 3 23
138 2 21
408 10 1
170 16 18
334 1 8
182 16 1
349 12 8
80 14 21
8 11 23
415 8 15
328 16 14
400 14 1
197 14 0
415 8 2
368 12 16
194 12 26
340 7 18
154 1 23
418 4 15
77 12 5
261 5 25
228 0 28
486 3 26
369 13 21
54 13 7
175 2 19
304 11 16
213 3 19
402 16 3
21 9 21
135 10 23
329 14 0
263 2 0
310 7 26
437 11 27
257 0 2
456 9 22
498 8 28
251 10 20
499 11 20
304 12 5
218 4 26
275 16 0
164 0 14
135 0 27
60 7 5
229 7 17
281 10 20
44 8 1
104 13 10
252 15 15
125 15 22
464 1 9
108 7 24
153 6 13
485 12 14
207 13 16
345 0 20
26 4 28
449 9 27
258 13 15
237 10 15
306 10 27
412 1 7
246 9 14
22 10 22
4 6 1
103 3 27
125 14 15
358 11 13
468 9 5
104 12 6
232 11 9
359 10 17
152 2 27
410 7 21
4 12 13
204 15 8
488 3 9
238 0 18
282 16 14
66 10 21
90 2 4
399 13 20
229 9 26
260 5 8
143 16 17
182 15 9
22 14 8
95 9 23
458 3 25
317 12 3
131 12 25
90 1 25
275 0 28
211 6 17
69 4 11
289 15 8
73 15 22
290 5 15
169 13 7
71 13 4
207 4 9
371 14 13
55 15 24
454 15 22
365 3 20
150 7 20
85 7 27
37 15 7
448 11 6
3 8 24
182 11 16
324 8 13
88 2 12
405 11 14
103 14 11
325 5 16
170 14 6
428 1 21
298 9 22
435 15 23
321 3 15
379 9 19
150 14 26
228 10 14
475 12 23
280 7 27
17 10 8
414 8 25
244 16 10
1 5 6
108 3 7
360 2 13
435 1 20
2 3 21
361 13 5
162 14 15
201 10 27
248 12 23
107 16 27
418 2 6
420 10 3
492 5 12
440 4 11
449 7 9
36 7 2
251 12 25
334 1 8
356 16 18
202 4 1
412 5 16
157 12 6
418 12 15
218 0 11
52 4 16
389 6 20
466 8 10
346 13 19
148 11 28
448 16 8
490 8 10
246 7 15
19 4 12
162 16 19
361 3 11
376 13 22
428 3 24
55 1 27
177 7 25
329 11 12
421 10 3
241 11 10
367 16 14
224 14 7
99 9 8
324 16 16
304 0 21
355 14 14
147 2 16
360 4 23
323 2 3
468 2 22
54 14 27
39 9 1
134 1 20
138 2 1
101 10 11
370 3 12
282 9 18
338 6 9
320 4 8
290 1 0
397 12 3
444 9 22
231 1 22
242 13 11
124 10 22
11 15 25
305 8 24
363 10 20
235 4 23
304 10 1
235 15 7
106 7 11
70 5 16
189 4 7
192 0 3
171 15 7
41 15 14
102 9 18
406 3 12
318 6 0
107 14 12
454 15 26
497 5 10
207 1 14
212 6 3
448 14 6
144 16 10
57 11 19
318 7 18
406 10 22
280 2 6
41 11 18
307 0 25
333 16 3
124 13 23
457 6 2
113 2 0
80 6 6
16 2 3
333 9 1
110 1 9
60 6 24
110 15 11
265 7 11
375 14 4
148 14 3
117 5 12
389 11 1
98 12 23
463 1 5
439 1 9
38 5 19
6 0 19
403 12 25
112 9 18
242 15 27
320 6 12
402 6 23
153 2 3
362 6 6
380 4 28
14 12 14
486 0 28
269 16 22
178 4 26
43 9 7
286 5 8
110 7 6
207 11 10
80 14 27
171 5 10
331 1 15
114 3 8
417 13 0
316 6 10
227 7 2
296 13 4
446 10 8
197 13 18
457 12 4
205 13 12
260 4 11
263 3 7
47 0 11
229 1 15
316 2 28
499 10 25
47 10 21
168 6 6
134 9 21
447 7 2
141 11 3
439 15 11
136 3 10
374 6 17
111 0 17
260 14 25
337 9 16
409 14 27
201 8 26
199 5 17
267 9 1
105 8 19
45 14 24
100 4 16
76 8 24
476 13 14
446 10 11
10 0 19
433 13 14
231 8 25
424 3 7
380 7 13
445 4 5
492 12 8
65 5 12
401 4 16
452 7 11
480 14 16
343 0 8
0 14 3
163 5 5
200 12 2
196 1 21
129 13 24
249 5 16
356 8 28
278 9 25
90 7 25
107 10 2
284 5 18
424 2 5
295 4 11
153 2 13
380 6 11
481 7 15
459 4 27
121 15 24
63 16 20
320 8 15
359 2 2
467 8 28
493 6 6
408 14 16
431 15 16
105 9 3
346 16 17
11 0 26
60 1 26
328 6 8
107 0 13
174 3 26
102 14 19
389 3 13
437 7 17
273 12 18
248 0 15
343 11 23
321 6 20
48 16 21
495 6 15
384 9 10
305 13 8
167 16 20
116 13 28
10 16 27
287 0 7
469 13 9
121 12 6
20 6 17
403 3 15
195 4 28
348 5 24
416 0 8
236 0 13
98 4 22
453 3 22
459 15 11
142 5 10
495 13 20
160 4 13
219 5 17
156 15 21
403 7 2
301 13 9
95 12 28
33 6 20
65 2 19
258 6 22
412 12 1
133 13 11
271 5 26
90 15 25
326 10 20
468 6 27
16 6 0
197 6 11
366 16 4
340 13 8
156 0 24
56 6 2
122 0 25
171 8 1
360 5 14
147 5 20
153 14 11
188 15 10
255 9 2
332 5 17
360 9 25
304 0 25
326 7 12
68 9 23
158 4 6
133 11 24
213 3 5
458 5 15
447 3 9
216 16 0
209 6 28
287 4 6
460 5 20
136 5 9
366 9 19
281 3 12
227 6 1
368 3 18
251 14 9
486 11 7
7 11 20
282 1 24
12 6 21
271 7 5
160 13 15
398 3 26
50 13 2
88 11 17
61 4 18
55 3 11
207 12 9
243 3 1
290 15 1
352 8 15
5 9 13
63 14 7
435 11 26
267 14 14
107 1 19
478 11 20
496 11 4
65 1 22
288 14 28
125 11 17
498 0 17
147 3 20
323 1 21
261 7 2
14 12 26
204 4 16
347 12 19
346 7 28
478 1 1
82 14 18
324 8 21
315 9 6
249 7 17
462 5 12
446 16 28
170 7 19
30 15 23
19 13 24
356 7 18
148 9 14
369 12 0
410 1 22
232 12 27
342 5 23
97 12 10
16 0 24
411 0 28
302 7 4
173 2 9
11 4 20
330 7 8
226 5 25
44 12 26
462 8 15
204 3 11
13 7 7
244 14 15
276 13 0
475 5 25
54 8 20
80 14 15
435 0 18
202 0 16
274 12 19
389 9 6
95 2 10
174 13 22
55 5 6
457 6 0
237 7 27
172 16 26
300 0 23
347 4 16
206 3 4
400 9 23
12 2 3
451 0 1
64 3 9
267 1 17
411 7 6
292 5 25
336 6 6
308 9 24
210 7 8
126 5 7
351 2 17
137 14 12
310 1 23
111 6 19
486 14 6
1 16 12
301 16 5
375 3 11
264 1 6
75 14 27
272 4 4
459 11 22
380 12 4
305 10 6
68 13 23
249 5 23
344 9 18
196 5 10
241 2 11
105 15 2
65 2 8
96 8 21
97 10 17
62 14 13
319 10 19
142 7 0
325 0 4
52 14 25
174 15 6
142 0 23
359 1 6
277 12 16
64 11 17
325 10 3
212 2 0
438 0 26
336 11 18
486 14 19
192 16 27
178 16 23
215 10 2
194 2 16
476 16 2
225 0 19
251 9 21
355 3 12
198 14 5
317 8 2
452 7 22
38 5 24
301 6 27
161 6 17
417 7 23
106 1 4
34 4 11
249 2 27
420 13 28
320 11 19
104 16 4
32 3 17
10 14 8
196 0 19
119 13 6
40 0 6
324 8 0
39 14 8
70 3 20
182 2 8
431 6 20
187 3 20
247 13 5
66 9 21
166 7 5
128 3 7
89 0 26
332 10 13
496 9 21
286 14 21
101 1 7
85 11 4
149 1 28
381 5 18
100 0 21
164 15 24
291 7 16
408 12 9
174 13 7
93 3 19
230 6 20
405 7 3
345 6 11
196 9 15
182 11 13
278 6 4
102 13 3
466 6 28
333 12 3
120 10 8
23 14 0
435 2 16
478 2 1
56 2 10
398 16 23
373 13 4
216 12 25
269 10 21
353 15 0
311 8 27
252 4 7
5 2 21
93 14 5
480 15 21
499 4 21
475 8 18
48 5 13
394 14 4
321 10 9
178 12 6
282 15 21
431 0 22
338 8 15
325 10 26
186 11 27
389 0 3
378 6 13
143 2 6
83 15 26
111 16 28
268 5 2
480 11 27
498 6 18
418 16 5
283 4 6
240 14 7
493 1 11
188 6 23
195 14 24
326 0 23
50 11 22
74 5 27
7 12 0
364 5 7
156 2 10
439 2 26
43 7 10
144 11 4
340 5 7
266 0 12
238 8 2
285 8 16
38 8 1
359 5 8
61 7 16
324 4 16
304 13 26
342 9 3
138 9 14
493 1 3
0 13 23
43 0 22
285 14 24
102 6 17
214 3 20
488 12 4
256 13 28
82 3 22
293 14 9
362 5 12
158 9 0
330 7 7
1 10 12
415 11 14
104 7 8
162 16 14
438 8 7
408 6 4
299 0 28
279 7 1
466 1 20
327 8 9
379 7 22
293 4 25
34 11 1
227 1 1
442 12 6
469 11 18
413 0 9
164 14 10
353 2 13
471 2 11
458 8 4
334 16 7
14 13 7
38 16 5
177 7 22
133 16 3
408 1 2
120 6 1
472 1 17
1 5 18
384 11 22
134 16 27
66 7 7
14 16 21
233 7 28
140 1 24
247 1 20
338 14 9
262 0 15
343 0 21
200 7 25
258 12 2
180 16 14
465 5 12
279 11 12
149 2 25
251 2 5
146 6 21
268 0 3
352 8 22
268 13 20
168 16 23
222 14 18
65 4 23
62 6 26
411 5 1
183 3 25
474 9 14
351 6 13
87 4 28
122 16 25
469 12 24
383 9 21
409 15 19
143 4 13
431 8 27
441 5 14
488 4 27
59 15 18
190 12 21
401 4 24
370 7 2
107 3 6
371 7 17
179 10 12
256 12 7
194 13 14
491 13 12
483 14 16
63 16 12
162 14 6
281 14 14
476 9 7
121 7 11
225 5 0
327 5 2
14 9 6
414 14 3
315 7 13
266 10 4
300 14 28
411 13 7
245 8 19
389 5 13
389 9 24
146 15 9
172 9 5
110 4 17
121 2 27
338 7 20
11 5 5
432 6 0
165 6 14
462 4 16
42 0 21
111 11 12
15 15 23
316 12 6
114 7 7
381 14 7
362 3 20
246 8 9
429 16 15
212 3 23
424 16 19
311 1 14
61 15 9
215 13 5
430 0 15
310 16 24
447 0 13
396 10 21
69 15 21
216 12 10
258 1 1
141 8 21
363 7 12
159 10 21
129 4 15
376 2 7
21 9 24
270 16 10
405 10 22
40 1 5
477 12 27
293 14 2
147 6 24
58 15 19
430 6 26
493 6 24
288 6 12
202 15 24
337 12 10
43 15 1
440 3 26
288 9 1
410 3 3
163 12 19
489 6 22
335 6 18
347 6 27
434 10 2
243 12 9
384 8 13
76 13 23
322 0 13
494 1 24
363 5 23
492 3 3
79 1 22
30 11 16
440 15 17
240 10 12
309 13 10
208 8 26
497 7 20
237 7 13
107 5 1
355 14 9
422 14 6
268 9 5
328 11 13
381 4 13
96 15 15
83 6 15
122 10 6
105 13 2
35 13 23
84 13 7
52 12 22
434 1 22
299 13 8
279 12 9
190 6 10
154 2 23
382 4 7
339 12 9
243 6 14
198 2 17
451 6 21
190 2 24
360 6 10
431 7 8
394 1 14
228 15 13
422 2 12
51 6 11
295 15 11
323 5 5
219 7 14
388 12 17
47 10 13
471 0 1
59 12 6
470 16 14
463 8 15
3 5 18
471 1 15
374 6 23
361 11 21
446 16 13
292 15 25
483 0 27
228 15 12
217 3 15
51 11 19
420 14 6
176 8 17
478 3 18
188 9 8
30 16 17
58 13 13
99 12 26
275 15 12
425 11 19
212 0 28
286 11 7
27 15 16
228 6 6
434 1 14
88 3 28
13 11 24
255 3 9
411 8 15
86 6 1
117 6 28
47 11 10
460 15 0
227 15 9
397 0 19
236 16 23
58 12 18
349 6 16
147 9 12
387 14 4
250 10 20
126 10 3
63 9 12
72 4 9
184 16 19
216 7 0
63 2 7
63 6 20
96 5 22
85 13 27
418 3 24
147 13 18
252 15 4
69 9 22
482 4 0
197 3 15
420 12 16
362 6 18
444 2 2
255 7 23
123 4 4
262 3 25
131 10 10
18 7 17
4 14 27
108 14 18
31 5 7
220 15 19
299 4 13
498 1 1
325 4 0
61 14 11
1 14 4
452 7 13
341 13 19
428 11 8
457 13 7
375 14 25
468 14 21
285 8 17
235 5 12
243 7 25
202 0 18
268 10 1
255 14 8
82 11 13
93 14 8
81 3 21
269 9 18
453 0 21
37 13 22
478 7 19
425 0 19
246 1 4
423 3 22
202 11 13
266 13 7
231 1 27
321 2 0
391 0 1
141 8 10
447 14 27
479 4 16
86 15 26
125 11 8
112 1 25
70 16 26
96 4 23
179 8 23
381 13 21
200 4 21
99 5 18
401 10 28
392 16 27
361 6 19
1 7 21
344 11 23
179 13 12
111 14 6
167 5 11
3 7 2
143 3 20
387 3 27
301 0 2
192 1 4
389 12 20
13 16 11
333 13 25
178 9 22
402 14 26
36 12 20
356 9 13
25 8 15
105 15 25
207 2 7
206 10 4
273 5 24
5 9 12
5 1 5
474 3 27
166 14 13
259 10 5
248 15 1
320 3 23
279 12 27
79 15 22
451 6 0
94 15 13
25 0 8
71 0 9
232 14 24
406 3 9
152 5 19
192 10 22
161 9 2
389 1 16
434 3 6
144 12 11
113 13 4
61 6 14
429 12 3
158 10 16
266 12 0
260 0 12
273 1 9
229 14 0
53 16 14
327 2 20
106 16 3
4 13 28
473 3 1
247 7 7
369 15 25
139 13 24
299 3 7
178 9 27
311 11 20
79 4 8
345 7 16
340 16 28
188 7 12
316 2 10
97 14 14
412 3 13
256 4 17
336 11 28
95 16 7
200 5 5
291 5 5
64 13 4
133 3 22
445 4 20
465 5 27
261 1 6
420 12 20
288 6 11
89 15 9
432 0 3
6 4 0
21 6 14
289 15 20
457 6 9
371 13 16
391 13 22
370 3 13
248 12 12
235 11 20
318 16 13
199 1 15
390 16 22
240 2 12
65 1 28
103 4 1
325 6 10
293 6 21
464 2 2
360 4 12
289 11 8
494 0 2
478 3 11
36 15 28
305 9 0
176 0 19
464 4 15
491 1 19
198 5 16
230 13 15
162 1 22
64 8 4
173 2 16
1 16 22
26 13 14
0 7 17
191 12 28
164 3 8
169 2 26
383 8 5
419 14 22
133 11 13
297 2 15
401 4 17
240 10 21
150 3 15
137 0 1
426 12 3
362 8 21
353 6 11
5 11 14
19 8 2
240 11 10
237 3 18
255 3 5
76 10 4
124 12 0
44 13 2
6 6 22
469 4 19
184 9 17
246 15 8
144 12 27
166 3 17
268 7 8
416 9 28
240 8 27
419 2 6
9 15 9
389 6 10
136 1 18
257 14 21
85 9 21
265 10 11
88 15 28
132 14 27
83 12 3
411 11 28
464 1 24
194 12 23
40 12 11
253 4 19
142 14 10
294 4 27
354 7 22
269 9 13
356 13 26
451 7 28
379 16 11
230 2 1
377 14 24
119 10 6
161 5 18
339 8 22
37 9 5
251 3 18
381 11 22
79 14 5
228 4 10
239 8 9
191 15 18
155 1 11
134 2 8
472 12 11
278 7 8
99 11 4
77 4 12
367 5 16
97 4 5
180 12 23
492 12 25
327 2 9
326 15 27
417 13 24
147 10 13
255 13 20
276 8 27
109 15 22
392 1 12
332 13 8
30 1 11
424 8 8
294 16 26
419 10 12
298 8 9
200 1 23
180 1 23
55 7 10
29 3 3
257 3 4
217 8 11
157 2 2
491 7 26
138 11 13
293 13 20
143 14 2
136 14 14
298 3 3
65 5 2
337 9 6
188 6 13
432 13 2
204 16 17
128 10 2
37 5 13
211 6 19
454 7 23
479 10 14
123 2 0
344 12 3
264 4 0
25 4 16
139 13 8
13 7 10
390 2 25
104 3 10
488 1 19
340 6 5
452 4 0
198 13 26
79 13 28
168 6 25
101 4 24
380 11 3
144 15 1
86 3 6
35 6 4
14 6 10
396 6 12
219 7 13
265 6 28
33 1 20
491 10 25
465 6 25
126 2 15
284 11 18
342 12 19
450 12 28
162 6 17
51 1 24
492 9 2
132 4 21
162 6 12
467 14 28
368 14 16
77 6 15
212 0 9
169 16 26
352 7 27
91 6 22
273 4 28
180 13 21
253 12 16
472 11 19
434 3 22
122 16 10
357 8 21
317 10 25
68 1 9
467 11 12
396 8 9
417 7 2
307 13 21
200 0 18
364 9 18
395 4 8
320 1 1
362 9 19
261 9 24
392 0 28
35 4 7
66 14 18
455 8 0
201 5 5
65 5 26
230 16 8
483 0 18
393 12 25
219 4 13
363 16 26
240 2 22
106 3 11
101 16 24
389 1 8
121 16 21
275 11 3
438 11 14
106 13 3
316 4 14
220 5 2
392 1 13
12 8 4
77 12 13
140 5 20
233 3 21
346 0 13
393 5 7
160 9 13
389 14 14
314 7 0
168 9 24
242 0 4
0 7 11
123 7 4
61 10 12
350 11 21
242 15 1
16 4 27
350 1 3
431 12 7
287 14 9
197 0 1
223 2 4
357 3 28
430 5 20
91 14 7
105 12 25
129 10 0
496 11 13
60 1 5
184 15 20
254 8 0
294 4 4
295 15 1
481 10 4
332 4 22
499 4 3
231 6 18
391 2 20
17 6 14
473 0 6
475 5 18
284 2 2
147 13 4
149 16 23
331 11 4
335 4 27
448 8 2
248 13 0
162 11 27
436 13 17
359 12 5
203 11 17
437 6 26
105 7 11
137 16 10
298 15 15
437 3 11
482 16 28
31 1 13
158 12 10
223 15 20
100 16 16
448 3 11
351 10 14
93 6 7
251 12 25
133 3 15
477 12 16
379 15 13
398 7 2
44 2 16
252 9 12
62 16 17
186 3 17
203 14 28
236 8 16
307 5 18
280 10 24
434 14 11
431 10 10
136 9 2
312 1 24
39 0 1
172 15 18
108 15 1
411 9 1
58 2 14
279 9 11
461 3 17
375 0 15
423 0 24
135 3 28
340 4 3
177 11 1
401 15 11
429 14 0
316 8 13
134 12 2
378 1 27
450 11 19
66 0 1
177 1 28
140 8 23
447 12 10
174 16 5
300 2 27
450 5 26
181 6 24
175 3 2
373 9 10
319 8 11
427 14 1
41 8 18
147 12 19
28 13 0
309 15 15
492 1 22
397 1 3
55 13 7
487 8 5
79 10 0
264 14 20
193 0 21
304 14 14
164 6 12
10 1 0
284 0 24
182 12 21
9 8 5
475 1 11
97 15 21
118 2 16
329 12 16
223 2 8
23 3 12
316 4 5
295 14 23
406 13 10
372 10 11
69 10 3
67 4 10
71 12 12
180 13 11
158 14 17
112 8 17
215 9 25
79 2 26
145 0 2
130 15 10
42 0 25
381 0 17
74 7 23
91 16 22
478 13 6
173 0 2
206 5 4
457 7 25
165 1 4
335 9 26
55 12 2
346 10 11
223 7 14
14 8 14
93 7 3
464 9 25
253 13 3
232 5 17
155 3 1
289 14 26
132 10 15
401 11 6
146 12 28
124 9 21
304 12 28
170 15 2
339 14 26
215 15 17
390 7 14
140 2 12
126 15 23
321 16 28
53 8 27
110 4 14
234 7 3
177 13 7
196 14 10
142 7 1
46 12 12
486 12 4
187 2 27
365 3 11
280 6 27
138 11 25
428 7 2
52 12 13
403 16 0
21 11 26
213 12 1
127 0 16
301 2 28
406 0 6
460 10 23
412 14 13
324 16 8
493 3 24
481 10 16
9 11 22
473 0 11
352 5 26
147 4 14
355 16 27
110 4 25
119 8 19
365 16 5
136 0 26
196 15 25
403 6 27
452 7 28
322 2 0
191 15 28
30 12 11
100 11 21
256 7 16
379 16 20
325 10 25
240 12 0
325 6 20
489 3 13
310 12 10
276 13 26
385 12 14
131 15 0
276 7 16
224 2 2
226 0 12
179 4 1
329 6 19
487 6 22
486 11 7
350 7 24
155 11 13
63 16 1
61 10 20
370 15 5
339 3 11
137 3 26
174 1 22
230 10 26
217 12 14
129 8 14
383 6 19
175 4 21
371 14 0
399 12 18
458 6 7
164 13 3
482 15 11
414 15 5
145 2 0
204 14 14
400 3 25
339 1 25
9 1 19
58 12 4
413 12 24
107 3 24
110 8 18
451 1 15
296 5 19
183 13 25
464 0 24
52 16 15
390 3 21
318 7 9
294 16 17
93 14 9
52 8 27
256 3 20
259 7 4
147 14 25
449 14 18
463 9 28
440 16 28
195 16 22
303 10 27
61 4 20
492 14 22
235 15 14
316 2 2
304 12 16
20 13 0
320 11 23
116 13 0
27 15 13
317 15 9
36 6 9
215 10 4
147 5 3
275 16 27
44 11 5
65 5 18
408 6 1
374 12 9
448 8 7
456 11 28
191 10 15
282 16 10
381 4 19
88 4 2
336 3 14
247 3 0
294 3 13
312 8 8
40 10 28
50 1 5
112 12 12
126 12 10
36 13 19
450 7 26
480 5 15
168 7 5
366 13 6
150 14 1
18 12 24
41 0 4
193 0 14
450 4 21
58 13 12
460 6 22
231 8 18
379 11 14
25 12 18
315 15 23
475 5 6
218 7 1
197 12 3
384 15 28
65 7 2
451 8 14
248 5 4
34 16 12
216 11 14
312 15 12
59 10 7
402 3 15
299 1 20
219 7 21
450 14 3
148 14 28
252 13 6
494 5 2
79 0 10
11 2 16
157 15 7
433 0 5
396 1 20
16 16 18
414 4 3
368 5 6
156 7 8
311 6 0
98 3 14
23 3 17
126 13 21
234 7 21
176 13 6
67 7 26
247 3 23
340 2 7
423 13 11
419 7 6
124 9 15
235 13 11
464 8 9
452 16 11
367 9 23
197 7 14
31 2 26
397 3 11
398 7 17
184 12 23
114 7 24
356 8 2
498 13 18
450 14 23
337 11 26
462 14 10
465 16 4
141 3 17
495 13 23
354 10 1
400 3 19
313 10 11
339 8 16
256 12 26
244 15 16
15 10 11
278 8 20
64 15 7
334 8 11
119 1 25
349 12 27
2 8 16
353 8 5
294 3 13
371 11 24
481 4 0
185 13 20
61 7 16
376 3 26
479 14 5
310 1 22
57 4 8
3 11 22
339 9 8
494 4 12
224 11 2
166 15 13
24 13 4
151 11 22
271 15 5
468 1 12
8 11 16
401 4 10
395 0 17
396 16 6
70 13 9
439 13 9
361 0 5
26 16 3
423 7 27
485 15 13
152 10 16
31 4 8
211 6 9
190 13 8
71 10 26
458 9 8
37 12 9
16 8 10
236 3 5
329 6 18
306 8 11
203 2 21
100 7 5
275 2 4
315 16 19
113 1 7
204 15 5
7 5 8
103 5 1
293 14 22
22 15 9
90 13 2
252 5 1
308 4 1
368 6 12
65 10 10
403 5 1
435 14 15
482 6 25
141 10 20
425 10 12
14 13 28
2 16 22
257 6 4
252 14 28
309 5 17
185 12 24
470 12 6
76 10 13
404 2 6
350 12 0
234 4 17
164 9 15
258 8 23
152 3 22
265 6 28
228 11 16
188 11 1
395 4 17
324 11 23
378 14 5
145 2 1
265 8 27
345 16 7
328 12 27
308 3 11
424 3 21
489 0 16
140 14 13
120 0 23
97 8 17
319 9 19
424 9 16
26 4 12
365 12 14
416 0 6
26 8 26
295 1 20
13 0 11
381 0 16
376 5 14
432 13 19
414 11 21
286 14 23
284 0 13
320 13 14
58 10 18
284 9 28
91 8 26
344 6 9
434 11 11
183 12 17
222 12 14
373 4 6
132 10 22
446 12 21
298 1 15
128 8 0
140 15 20
166 6 26
109 5 7
46 0 1
431 5 26
234 10 25
344 1 23
414 6 20
69 13 12
0 5 9
129 16 4
146 2 23
187 6 14
390 9 13
34 6 16
221 12 0
320 10 8
35 14 26
343 4 7
399 2 14
175 16 21
118 11 23
489 14 4
493 8 25
90 7 10
250 6 6
204 5 20
61 3 19
10 13 12
329 12 19
45 14 6
36 14 11
476 11 13
446 2 3
85 0 12
430 1 8
219 12 22
38 6 3
179 13 4
359 2 3
74 7 24
102 5 10
353 11 15
277 14 23
101 5 28
422 12 14
468 11 24
432 11 16
344 15 20
380 6 5
462 2 6
168 8 22
365 7 13
32 9 25
74 16 7
337 3 3
266 5 24
294 5 10
88 14 8
202 0 11
44 1 15
158 10 14
272 10 12
335 9 4
274 9 11
28 10 11
287 14 5
153 3 23
200 13 12
356 4 0
493 16 28
334 5 16
476 4 21
415 0 8
185 4 20
16 8 11
404 1 17
130 3 15
415 2 12
265 13 16
144 13 4
71 16 11
209 15 28
465 6 11
498 6 18
266 10 12
72 10 19
367 7 22
497 3 25
185 7 23
336 9 13
208 16 3
139 3 12
324 7 0
2 5 15
371 1 19
259 7 0
463 5 17
379 0 1
258 15 3
126 10 19
294 8 28
421 9 9
98 12 7
1 0 19
236 9 4
308 2 0
104 11 25
4 4 28
394 14 23
435 1 14
459 9 5
262 5 27
212 15 27
97 6 12
290 13 21
453 2 9
36 4 17
278 8 12
363 2 3
452 7 3
395 9 10
101 10 7
401 7 9
456 5 14
445 8 9
78 16 28
27 7 11
38 0 27
157 7 5
472 4 21
454 6 24
253 7 17
430 15 8
167 3 19
201 14 26
9 1 26
463 1 2
100 10 16
197 1 8
65 3 18
317 14 22
406 13 8
292 15 16
122 6 15
256 12 22
82 11 20
310 11 9
115 4 4
36 9 8
55 13 28
392 3 25
432 10 25
497 9 27
234 2 12
20 14 3
414 4 26
364 7 26
166 14 6
225 15 20
102 14 28
362 10 3
122 13 8
115 9 26
345 8 19
321 4 0
7 6 1
482 5 20
492 15 8
94 10 8
133 2 9
364 9 10
11 12 28
233 12 9
28 15 27
80 2 24
30 9 15
9 11 12
68 9 6
354 5 25
378 5 1
437 3 7
341 8 10
315 4 3
371 13 3
166 4 15
281 4 15
217 16 10
191 7 24
151 16 13
247 7 20
426 6 26
325 4 28
187 2 27
329 3 28
276 14 11
177 2 23
2 0 2
286 0 27
67 8 8
75 6 10
230 5 1
175 0 27
91 0 17
24 5 8
201 1 18
318 5 20
179 15 1
177 7 19
128 8 0
405 0 17
416 14 9
144 15 10
384 15 1
140 5 3
276 16 15
335 2 11
179 10 7
482 15 24
57 7 16
221 14 5
104 4 4
129 7 26
132 14 8
461 7 1
88 10 26
40 10 11
138 6 16
27 14 8
481 6 5
421 1 12
374 10 21
17 13 7
73 6 21
192 8 23
275 10 3
41 15 22
4 16 7
118 0 24
485 5 4
136 6 24
123 5 6
384 12 24
154 16 23
323 13 22
1 16 2
28 11 8
214 12 2
25 6 28
414 8 6
275 3 12
21 4 1
196 16 26
246 11 9
434 10 10
381 14 2
152 7 11
376 5 19
145 9 10
66 0 26
186 1 22
244 4 27
396 15 0
107 16 16
209 9 23
428 16 22
341 13 5
227 9 22
259 2 14
156 10 27
87 4 15
432 13 4
360 10 1
354 16 9
246 10 3
390 0 19
332 12 11
387 9 18
152 9 13
352 16 10
272 7 19
349 14 19
291 16 4
3 8 21
68 0 21
327 12 23
108 2 14
253 6 14
417 1 9
212 16 15
482 0 26
90 1 4
448 7 8
256 9 22
270 13 24
262 8 21
174 10 11
199 2 19
476 0 28
174 4 3
133 2 12
395 8 27
205 6 2
493 3 27
190 0 12
32 9 4
175 3 26
109 16 12
96 10 23
118 8 21
228 13 19
204 15 8
41 9 0
67 9 25
356 3 17
311 5 7
44 12 10
324 8 19
417 4 25
365 10 17
163 16 10
108 14 12
332 7 13
401 11 4
118 10 10
455 11 23
167 9 13
123 5 21
69 2 3
393 3 0
149 6 28
257 3 11
375 12 13
185 7 20
273 1 22
180 14 11
345 9 9
222 16 5
301 7 27
461 8 26
47 7 24
248 8 7
44 16 15
76 13 8
430 5 4
249 10 8
493 11 3
166 2 0
91 4 9
439 16 8
447 7 0
374 6 16
175 12 2
429 11 23
424 12 16
358 8 0
8 4 22
258 16 5
287 13 27
262 2 12
183 11 21
119 6 15
102 15 18
29 1 17
455 3 9
218 7 2
412 2 26
45 5 9
430 13 4
338 6 11
198 10 6
261 13 28
128 3 22
306 15 26
456 2 5
57 10 6
171 12 26
181 0 8
420 4 23
206 7 2
433 9 2
103 11 12
103 7 15
477 11 10
126 10 7
391 13 20
429 4 4
480 14 2
438 5 22
57 7 22
395 14 28
41 13 4
438 0 16
87 14 26
278 11 6
459 12 11
101 7 18
412 14 6
63 11 21
177 10 14
430 5 14
147 11 10
387 10 0
487 13 24
285 16 9
298 16 8
391 4 6
31 6 12
127 0 19
247 11 14
50 10 18
481 13 5
51 0 27
472 4 3
111 0 26
406 16 1
66 12 23
61 15 21
465 13 11
454 12 23
234 10 28
221 16 7
330 11 19
111 14 20
390 5 17
108 13 0
310 9 23
430 1 4
298 15 28
411 2 16
488 14 19
207 4 18
217 6 3
267 1 6
334 11 24
280 0 25
476 16 15
205 11 22
349 16 23
167 13 18
294 12 14
436 10 13
490 8 6
455 16 23
185 12 5
429 11 23
19 6 23
438 3 15
433 3 22
358 7 3
97 10 18
127 12 27
232 2 12
96 1 6
0 0 19
413 15 10
226 3 14
96 10 22
31 10 3
237 3 26
291 12 21
87 5 28
268 3 0
303 16 11
41 1 23
168 8 22
449 10 14
447 12 16
164 8 26
488 10 14
397 9 17
425 10 3
301 15 3
336 15 26
44 10 0
7 15 3
333 4 26
83 1 5
194 13 22
384 9 21
45 12 8
53 2 18
332 6 17
15 2 11
276 16 14
5 1 27
382 5 4
174 5 23
267 6 16
65 7 3
466 10 22
91 5 13
79 7 7
37 5 15
306 4 3
173 16 13
38 8 18
171 3 8
89 9 2
459 11 21
322 14 6
82 6 15
174 0 22
54 9 15
411 10 26
137 8 18
212 8 5
429 11 0
249 13 3
271 1 8
323 12 12
98 11 14
104 16 22
267 7 17
124 5 6
293 14 6
216 3 28
246 3 20
26 10 22
414 7 5
466 1 19
132 10 3
336 8 1
117 14 9
423 6 21
87 9 21
324 16 10
62 14 10
226 7 19
450 1 20
55 2 26
448 6 9
430 8 22
398 2 21
387 1 28
90 0 0
18 10 24
133 8 13
187 13 20
428 7 1
447 1 20
54 6 15
413 15 12
469 10 18
193 6 17
476 1 0
373 0 20
303 7 24
410 0 2
94 4 14
51 12 21
439 7 4
410 12 11
14 8 28
60 0 1
353 4 17
339 5 6
285 12 11
365 5 3
258 10 18
6 7 8
29 8 13
95 7 15
215 15 15
475 15 4
326 16 22
318 2 14
362 6 4
150 11 15
216 15 10
358 16 7
124 9 15
197 6 13
222 0 16
292 4 12
429 14 26
281 5 12
3 9 10
423 10 16
52 16 19
226 14 10
303 15 5
146 3 22
346 6 20
317 3 28
30 5 24
247 15 18
252 4 7
102 9 22
411 11 17
292 10 23
84 10 23
160 0 24
283 5 17
400 1 25
221 1 19
452 10 12
232 10 6
314 5 28
485 0 0
468 0 8
381 14 7
311 8 11
53 7 13
28 12 2
290 3 14
109 14 1
447 2 1
216 14 28
26 11 20
64 8 14
207 6 15
37 15 23
100 9 11
70 5 3
19 5 12
40 10 6
103 8 1
208 15 13
182 9 24
245 0 6
467 10 22
289 5 25
404 10 8
356 7 27
441 16 22
108 0 0
94 3 11
365 6 27
456 11 10
295 7 20
363 0 0
264 5 28
225 6 9
326 13 9
163 12 14
227 9 3
2 8 18
333 16 28
31 12 20
232 15 3
72 15 21
31 13 15
103 1 7
226 13 21
190 6 20
154 14 14
135 0 6
63 7 17
253 5 28
442 10 25
421 2 18
57 6 9
185 15 22
358 0 21
122 12 14
142 14 8
81 6 5
301 11 10
122 5 12
225 15 16
317 5 10
253 1 11
191 8 5
465 6 5
448 11 19
377 4 2
316 3 0
337 15 1
325 13 19
251 3 27
228 3 14
443 6 27
23 3 20
5 13 27
237 2 1
183 14 27
256 4 12
297 9 4
155 6 15
3 8 8
106 2 1
150 11 0
167 1 18
88 11 22
22 4 17
325 10 24
179 10 22
451 3 20
134 15 18
9 0 16
262 2 22
50 16 14
111 13 7
246 6 9
451 7 25
129 6 3
347 12 17
137 4 13
290 13 4
161 7 7
455 1 19
474 3 18
125 9 0
350 13 16
109 14 12
112 8 7
272 6 6
305 14 15
455 0 19
470 11 26
332 15 7
112 15 0
387 6 24
225 10 24
27 10 16
142 8 2
160 11 22
333 4 18
57 1 11
97 4 5
383 10 13
204 6 16
132 16 18
368 7 7
108 13 25
407 5 9
415 9 27
449 16 16
326 14 10
470 0 0
276 7 20
259 7 26
314 13 26
431 16 22
347 2 22
332 9 8
414 16 9
422 2 9
32 2 9
499 5 1
422 1 14
215 5 1
209 3 21
271 1 5
423 7 26
254 16 0
24 0 23
284 4 21
11 6 0
347 1 18
275 9 18
278 9 25
462 14 18
305 9 15
14 12 10
212 6 24
58 0 24
434 9 18
146 12 20
249 16 1
386 1 12
438 13 1
379 5 4
448 10 6
51 7 4
371 8 3
60 12 8
153 0 17
372 16 10
452 10 4
7 7 2
177 2 11
269 11 20
141 3 10
115 11 20
498 14 24
143 12 0
22 3 0
97 14 14
336 12 0
212 13 12
153 11 9
392 12 19
74 10 1
355 11 18
176 13 26
356 0 16
126 13 18
184 13 18
101 6 2
492 8 26
486 9 20
133 10 5
298 13 18
117 14 20
303 6 4
40 16 8
365 4 11
466 9 26
461 3 1
269 13 2
163 1 3
352 15 11
260 1 26
84 13 27
431 12 4
170 12 11
440 5 20
78 11 24
8 12 0
94 12 11
376 5 5
124 13 12
355 11 6
8 11 21
448 10 2
400 9 18
127 14 13
268 2 1
158 12 10
187 5 18
249 15 0
92 7 22
250 3 6
272 10 8
2 2 18
425 7 8
159 12 19
383 8 22
303 11 11
309 1 3
285 0 11
244 0 19
464 5 23
385 15 14
178 2 7
430 4 19
336 1 8
283 7 16
379 16 2
358 11 9
388 15 0
283 7 0
242 0 9
340 5 21
379 15 25
258 14 25
246 12 15
286 7 6
412 16 3
26 15 23
368 8 6
247 7 26
289 13 8
377 14 27
265 15 0
111 5 9
196 16 19
149 10 14
106 3 15
408 6 5
396 9 25
370 5 5
37 5 14
284 11 23
206 6 3
87 6 19
368 3 16
350 8 5
178 1 2
152 0 7
230 7 26
218 4 8
30 1 22
342 15 17
30 7 13
174 10 13
471 9 22
319 4 5
198 13 3
51 16 20
232 10 4
68 13 0
321 6 20
16 13 12
204 8 6
61 3 16
386 12 4
60 16 28
224 5 2
51 3 18
494 14 13
171 6 14
175 12 20
470 8 13
13 9 11
233 3 23
186 15 3
104 15 14
274 6 8
361 16 18
351 5 14
263 8 4
40 16 25
493 14 23
0 9 22
365 3 0
91 11 13
170 6 27
197 14 15
408 1 19
414 9 19
89 2 25
231 16 3
497 0 3
90 11 21
126 15 1
46 3 21
153 9 5
101 4 8
130 12 2
124 2 2
305 0 21
428 6 2
452 7 3
492 7 19
470 8 3
390 4 5
280 11 15
148 15 8
247 11 21
349 14 9
457 10 0
315 16 23
394 10 7
488 15 4
119 16 27
59 8 9
358 8 27
36 9 3
97 5 0
444 5 21
277 0 9
390 11 4
143 8 6
0 9 21
81 7 20
257 14 19
185 15 9
438 13 6
447 16 25
33 5 22
431 15 14
128 8 15
2 2 15
274 1 23
259 11 17
17 0 16
267 5 12
230 9 5
472 12 12
280 0 6
489 9 9
52 13 26
109 5 1
106 0 0
107 4 2
388 0 19
135 1 24
163 2 12
244 1 19
235 5 3
452 9 18
418 9 26
222 3 1
2 7 18
306 1 18
75 5 2
251 5 16
410 6 5
276 13 21
74 13 16
29 9 0
435 0 16
180 12 4
166 2 3
145 12 12
154 14 0
328 10 27
244 16 8
301 8 15
477 9 24
203 6 15
216 1 26
470 2 13
352 10 21
264 10 11
325 3 12
259 0 16
186 7 27
179 13 21
462 9 27
357 8 7
313 14 28
458 7 7
147 9 21
73 16 21
11 1 12
26 9 22
438 13 13
102 15 21
148 16 11
460 4 17
217 6 5
271 0 18
194 15 6
190 8 3
360 1 8
151 0 16
448 0 0
117 16 13
484 0 20
48 15 14
455 2 20
221 4 12
35 9 14
491 7 13
226 9 23
346 16 14
146 13 2
491 8 3
459 8 4
494 9 28
304 15 12
448 6 10
154 10 6
63 10 15
478 7 22
204 3 6
59 12 26
100 16 21
15 12 13
394 13 13
75 2 22
274 14 27
200 11 1
336 3 2
331 13 0
380 8 12
31 1 7
352 8 22
293 11 26
316 12 22
371 3 19
24 14 11
376 0 15
123 7 9
260 5 13
18 6 27
155 2 16
255 8 17
314 14 10
237 2 17
419 16 2
422 15 26
229 3 6
180 8 14
400 12 3
444 16 16
79 6 21
24 3 7
172 3 17
178 15 6
178 9 27
49 7 3
302 13 6
233 13 23
428 3 17
176 12 4
497 14 24
267 0 8
192 15 28
494 13 15
87 5 22
339 3 23
356 9 2
285 1 7
331 13 3
361 10 28
362 10 15
182 5 18
133 16 25
369 16 23
143 3 7
216 5 9
410 15 7
408 9 0
476 8 11
131 11 21
452 12 28
2 9 20
439 0 6
484 7 18
259 4 6
261 10 17
244 1 28
156 13 9
452 10 0
325 2 25
375 7 22
32 2 5
478 8 5
472 7 28
54 5 5
236 8 5
483 3 14
325 15 26
213 9 25
425 9 1
295 12 14
237 14 21
255 5 21
279 5 16
158 10 26
41 3 2
17 4 7
440 2 2
408 12 20
497 15 24
476 10 25
292 0 27
466 14 26
368 14 18
365 0 26
72 1 0
111 7 15
201 11 20
476 8 28
465 8 27
151 11 23
19 11 21
87 6 4
433 14 26
194 10 7
217 1 24
22 15 12
152 10 16
391 16 27
143 10 18
36 12 28
77 13 19
125 1 23
403 14 14
299 10 8
265 2 24
238 12 8
101 9 4
391 4 8
208 15 1
24 2 4
338 12 0
358 9 7
70 11 19
357 15 25
396 10 11
486 4 14
316 7 1
402 0 14
204 4 28
81 9 15
393 13 28
37 13 17
257 16 25
177 14 18
200 3 15
193 5 23
324 4 7
195 6 27
230 0 11
481 0 23
386 7 28
239 14 9
414 9 28
63 16 9
364 13 23
301 3 20
264 1 26
387 2 0
357 3 18
290 0 27
109 7 26
1 3 0
178 8 8
444 2 28
284 0 3
300 2 24
168 11 9
251 15 19
283 6 10
190 4 6
323 0 14
213 6 18
19 11 19
252 2 26
459 5 14
332 4 23
438 5 19
162 0 9
220 7 21
370 4 21
373 16 27
181 4 19
374 10 4
56 13 25
147 4 24
231 1 13
478 5 19
9 3 23
62 2 8
129 11 13
90 2 26
311 2 6
19 13 23
212 4 8
370 16 10
252 3 5
168 7 8
225 10 17
494 4 3
430 3 4
79 0 12
412 3 28
467 4 25
470 10 10
87 11 13
449 14 16
23 14 20
306 15 18
46 6 13
415 9 25
430 15 25
38 2 19
395 11 10
175 1 1
155 14 22
41 14 17
27 5 0
136 4 22
451 11 23
122 2 18
111 16 24
493 4 12
61 0 6
118 16 18
106 10 9
167 0 19
364 11 4
498 8 23
370 10 23
320 13 23
408 15 22
112 13 20
349 16 24
394 11 3
395 9 8
396 5 6
4 0 27
287 1 21
320 6 10
427 9 22
210 5 12
403 1 6
82 2 7
384 8 8
27 9 8
405 9 9
2 16 22
70 4 13
343 16 6
167 16 27
345 10 11
280 2 15
24 14 14
18 16 1
7 7 18
448 6 8
325 12 14
6 10 11
215 5 16
88 12 17
452 4 0
33 12 2
172 5 19
207 4 1
278 2 28
339 6 3
216 4 14
479 16 25
343 8 1
434 3 2
202 9 6
90 15 5
405 0 17
209 16 19
405 8 19
292 12 26
413 4 7
73 6 23
415 0 12
336 13 15
425 7 4
96 8 23
69 5 8
70 11 1
81 11 14
251 13 27
140 9 1
108 2 21
421 10 21
4 4 11
79 10 18
128 9 27
391 4 28
68 2 25
274 8 12
446 10 27
88 0 9
336 13 20
394 0 25
155 9 9
339 11 21
64 9 16
493 12 25
262 2 14
394 4 12
47 0 7
232 8 26
337 4 18
112 7 11
137 11 17
120 8 8
357 0 23
139 11 12
76 0 11
388 9 24
23 11 2
226 16 5
246 16 0
150 8 6
473 10 1
427 12 2
66 12 9
211 4 13
418 10 3
76 11 13
386 4 15
430 13 1
379 0 5
42 3 5
356 3 19
241 2 9
303 8 22
392 9 9
360 9 18
498 2 19
480 5 23
232 12 23
265 7 18
494 8 24
292 8 10
94 15 16
312 4 22
72 0 7
467 1 9
393 12 19
146 10 23
414 10 0
118 8 20
64 0 6
63 12 17
203 15 20
492 15 24
166 8 24
231 0 9
471 15 6
452 8 2
313 10 27
209 16 9
81 10 25
377 12 16
442 15 26
253 15 26
422 6 10
248 11 21
67 0 5
13 13 2
494 10 24
351 2 20
260 15 4
343 8 2
226 0 13
124 10 19
248 12 10
74 9 9
448 8 16
322 0 3
132 5 11
226 1 7
114 4 11
277 1 8
366 9 10
274 5 14
442 7 23
181 13 6
251 1 26
174 8 8
318 4 4
421 11 19
318 7 16
13 9 11
395 14 16
131 5 25
126 11 21
263 12 16
455 1 1
260 7 28
91 6 1
222 15 0
239 15 13
52 16 10
111 5 7
397 0 15
63 9 22
497 16 27
373 16 0
152 7 1
157 1 24
400 6 7
341 5 3
118 0 6
305 12 2
368 11 15
69 2 17
455 4 21
485 6 24
129 13 25
82 11 17
197 14 20
315 3 17
209 11 10
225 8 6
35 0 22
266 9 2
153 8 28
476 6 27
6 11 23
207 16 3
55 9 16
357 13 21
193 8 1
464 6 10
332 15 10
204 3 11
171 2 16
244 10 25
269 12 12
183 16 14
38 7 19
331 5 26
496 11 24
45 2 8
9 16 5
157 16 22
205 1 10
271 14 6
191 16 26
429 14 22
493 2 26
349 4 17
239 0 21
123 5 27
399 16 12
80 9 12
268 0 11
316 1 21
274 4 19
409 6 18
484 3 0
398 7 20
294 4 21
420 14 9
140 6 4
379 5 7
9 13 26
249 14 8
46 3 10
106 10 1
492 0 28
307 0 14
478 11 23
328 15 0
228 11 28
307 9 8
468 4 25
190 4 21
45 7 25
235 7 15
76 16 25
346 10 14
2 11 28
31 14 4
371 7 4
9 8 19
266 14 28
344 2 15
464 10 1
392 0 4
148 12 25
384 5 0
83 15 20
100 4 20
83 3 2
1 15 1
286 6 18
169 12 20
471 2 19
245 5 3
33 0 23
91 3 13
417 0 9
288 13 11
477 13 28
236 12 20
33 6 22
228 11 14
445 16 1
276 6 24
93 8 17
389 5 7
211 15 27
284 6 20
454 1 8
397 1 25
296 11 10
338 8 10
281 11 23
390 5 13
130 9 13
69 3 9
245 4 11
396 6 2
69 1 14
235 15 14
474 9 12
485 16 11
359 7 8
497 4 0
177 2 23
479 11 15
277 10 11
240 15 16
487 13 25
82 15 7
299 1 17
367 3 25
168 1 10
449 1 5
275 1 21
139 12 15
498 4 6
324 8 3
204 9 22
270 7 26
218 10 15
3 13 27
350 12 12
78 1 19
112 13 14
9 16 27
35 2 6
148 14 15
360 6 5
481 15 27
94 14 5
78 1 1
463 15 25
420 9 1
98 10 6
1 8 11
156 12 1
28 12 17
56 7 7
198 3 21
341 5 26
60 3 26
465 6 27
259 11 21
212 1 26
152 10 19
176 7 1
353 4 22
354 7 20
295 12 6
172 11 14
305 0 13
233 6 27
196 9 25
3 15 2
298 1 8
121 7 13
401 4 9
203 3 22
155 4 10
105 15 2
215 15 16
192 2 21
255 5 26
494 5 23
17 0 24
248 14 26
296 11 25
8 8 18
258 6 24
279 2 3
208 13 13
315 9 11
6 12 22
252 0 6
179 0 22
63 0 15
55 11 3
246 9 5
347 4 6
202 16 8
223 4 21
239 1 15
368 16 15
10 16 6
111 13 20
356 15 18
170 6 0
364 13 21
185 9 20
416 3 16
345 2 23
413 12 1
211 9 25
278 12 4
244 7 6
452 4 23
155 3 25
62 6 9
475 15 8
402 13 7
324 2 9
492 14 12
119 2 11
438 8 2
120 7 1
199 1 12
119 5 25
439 12 12
416 16 21
469 0 15
398 11 0
26 5 14
190 1 2
38 13 21
414 0 5
128 15 17
172 14 25
143 11 2
466 14 22
95 16 8
391 3 24
215 3 24
199 8 3
39 0 1
122 9 22
152 5 19
374 14 19
172 12 22
373 10 12
302 8 22
105 16 9
78 10 6
169 12 12
368 16 7
378 15 4
437 16 13
14 12 19
97 2 17
297 13 7
380 3 23
33 9 18
211 1 18
136 15 26
258 7 2
444 12 27
207 13 11
374 9 5
237 5 26
94 1 9
233 8 1
60 3 13
263 2 20
464 13 8
398 13 21
423 6 26
56 3 27
139 15 3
495 5 18
325 9 15
431 2 24
375 8 0
235 6 25
232 6 13
347 12 7
27 8 1
219 2 8
35 12 14
230 14 25
215 16 6
1 4 17
160 1 12
244 11 24
243 15 24
220 12 5
42 16 6
272 12 3
397 9 3
396 3 3
157 13 6
58 16 9
378 10 13
126 0 23
427 8 3
9 6 13
263 2 6
22 1 8
451 5 3
359 13 23
495 1 20
373 15 15
130 16 21
453 4 14
32 10 7
140 9 23
377 9 0
89 9 18
419 14 16
484 7 23
241 4 7
436 14 10
164 11 28
219 3 2
378 0 6
211 9 23
421 16 13
126 1 27
451 5 25
391 0 26
125 6 18
259 3 26
148 12 23
381 7 21
316 7 1
455 3 6
145 9 25
173 10 20
60 16 15
398 16 14
443 1 28
161 9 15
458 15 8
233 5 0
172 16 18
406 8 11
375 6 2
299 6 28
39 9 4
255 3 5
157 16 22
239 4 25
250 2 8
364 13 20
216 8 27
319 5 22
351 11 23
280 7 27
482 16 11
444 12 26
45 13 8
380 10 0
367 12 21
461 0 7
209 1 6
68 15 11
488 8 11
485 4 26
393 4 26
289 14 11
44 5 24
101 12 4
287 10 3
0 8 5
339 10 16
406 7 23
187 3 9
405 9 14
101 16 16
7 8 7
191 4 25
368 9 6
341 0 27
191 4 2
417 0 17
22 4 15
140 4 25
128 6 4
203 8 19
273 3 13
379 9 18
71 7 3
362 0 17
450 3 6
27 13 26
171 0 26
176 7 18
50 7 3
265 11 7
115 15 0
451 9 15
86 0 7
314 5 12
458 4 27
95 3 12
229 12 21
485 12 6
104 16 24
263 8 11
9 12 28
72 0 1
62 8 27
286 5 27
17 1 16
360 0 21
180 8 18
196 10 8
112 0 3
120 16 3
227 16 18
286 1 20
329 13 18
105 14 2
286 8 24
290 15 11
261 0 20
173 6 22
70 10 3
365 15 1
329 9 7
305 9 23
378 0 10
201 7 0
490 16 21
387 5 9
57 1 16
207 6 5
24 13 6
284 6 24
424 9 5
337 8 28
223 10 11
311 0 27
272 1 18
251 2 2
366 1 17
392 14 11
179 5 14
147 10 11
30 10 19
252 10 22
459 0 16
179 5 0
409 9 23
192 3 14
252 2 13
67 0 27
412 12 23
38 14 4
343 5 12
66 11 6
478 10 19
55 15 19
437 15 12
126 13 23
118 9 4
191 10 6
243 4 12
191 14 26
381 1 21
161 13 28
344 10 0
199 2 24
496 5 12
9 15 1
455 16 11
491 14 19
146 8 3
405 6 14
295 6 4
427 11 6
370 10 0
49 9 21
422 3 2
185 7 3
294 14 6
211 8 21
14 9 12
285 7 28
453 6 4
17 6 3
186 11 24
48 8 23
137 12 21
254 1 27
90 2 9
312 11 12
288 9 12
70 14 15
119 7 28
338 12 16
116 8 7
83 15 6
226 5 18
492 16 10
225 8 4
19 5 5
432 2 19
386 8 2
160 16 15
155 3 2
264 12 23
299 11 0
419 8 23
434 2 13
473 12 9
337 13 24
85 6 7
271 0 15
499 10 12
386 10 25
376 9 19
170 11 27
302 5 21
55 15 7
21 10 9
426 9 6
266 11 23
444 16 12
10 10 11
282 12 12
45 15 14
169 6 9
366 0 26
53 13 28
314 13 16
209 1 11
249 3 24
356 10 14
35 7 6
293 10 10
281 14 21
187 16 20
460 11 8
123 3 3
161 12 12
249 14 5
226 4 7
393 2 7
205 14 5
22 4 17
19 16 7
163 11 18
119 5 14
222 1 1
400 0 24
306 4 24
412 12 25
387 9 13
29 11 7
312 13 14
488 9 17
497 0 20
141 7 4
429 5 22
88 13 23
116 0 20
237 16 11
193 1 13
354 13 28
204 12 9
104 16 8
48 13 15
452 3 4
337 1 10
385 15 1
366 2 1
274 11 3
245 5 24
55 4 21
335 8 26
395 8 11
152 5 15
268 5 25
264 3 22
67 0 1
61 10 4
198 9 11
0 10 20
163 4 6
240 4 2
73 14 20
304 2 10
126 15 9
301 13 24
281 6 28
91 7 23
59 4 0
354 9 22
3 8 25
143 16 18
272 5 13
406 3 3
485 12 14
459 3 9
186 13 19
227 16 13
178 7 6
90 3 7
132 13 22
91 7 0
88 11 15
377 0 17
218 7 6
388 9 0
322 15 8
184 4 10
47 10 1
238 15 2
423 13 24
311 15 23
198 0 25
380 12 2
228 0 24
413 16 23
18 5 19
194 1 3
101 12 28
356 14 17
376 16 19
388 12 14
6 16 26
105 7 15
180 1 9
473 5 18
33 15 22
316 14 10
68 0 22
271 14 25
107 8 13
465 3 11
304 5 2
369 2 2
215 14 7
455 4 11
56 2 2
495 12 15
140 0 22
272 7 3
335 9 12
471 5 25
307 12 4
389 12 26
12 9 21
488 15 21
455 7 27
230 7 22
458 4 13
89 3 13
493 0 27
147 16 21
457 13 27
380 5 5
21 12 15
479 8 11
199 0 26
77 14 23
111 14 16
381 9 3
251 3 11
169 15 27
76 14 7
258 16 3
55 9 17
73 6 2
80 0 14
233 16 23
112 4 10
280 1 19
64 12 19
229 16 7
149 9 13
141 12 25
94 7 20
361 8 16
168 3 9
34 10 25
347 11 28
451 9 5
431 5 9
314 9 15
105 7 19
119 5 2
41 11 27
29 6 1
207 1 25
16 15 1
397 6 24
56 5 21
90 13 18
395 13 23
460 0 28
414 1 14
121 7 15
340 4 6
343 12 13
114 9 21
88 13 19
102 2 17
409 11 13
86 1 24
319 15 12
106 6 19
155 15 18
290 11 15
31 16 4
330 5 7
301 15 15
281 10 23
132 10 15
371 6 3
121 15 17
112 11 16
346 10 21
149 16 23
185 15 24
73 8 9
106 16 9
319 12 23
286 15 0
412 14 21
347 2 2
74 13 15
490 3 16
284 6 20
408 9 0
182 0 14
326 0 22
316 14 13
400 7 3
179 1 25
292 8 24
298 14 13
14 3 22
307 14 22
463 6 18
128 6 14
376 8 17
377 3 6
115 5 27
277 8 6
170 8 25
387 1 19
405 6 12
137 3 21
381 14 19
344 0 13
268 13 25
291 8 3
141 4 9
341 11 20
323 14 14
311 5 10
268 7 15
112 12 6
205 16 18
349 10 9
240 14 0
357 1 25
352 9 6
416 15 11
435 12 0
309 7 2
423 14 26
336 9 26
138 3 11
87 2 16
128 1 17
28 12 19
394 6 17
58 13 16
387 14 14
360 13 8
452 15 24
0 13 2
357 3 21
459 0 19
132 0 26
35 15 26
490 0 5
0 12 16
119 12 12
390 15 6
413 13 22
81 0 9
248 3 25
179 7 18
41 4 5
466 7 13
50 4 12
42 4 10
468 6 11
66 5 13
371 0 14
61 15 0
287 5 3
163 1 16
65 3 7
53 6 16
151 12 20
27 3 3
358 16 28
407 8 5
461 9 22
158 15 18
104 11 28
309 9 18
244 9 5
63 1 26
282 8 20
281 6 8
370 6 1
55 15 19
230 14 11
121 2 14
403 14 14
217 2 16
188 1 13
422 6 9
4 13 22
283 7 22
406 1 26
11 8 0
414 10 16
333 15 3
141 7 15
232 12 20
189 9 28
280 7 18
50 8 11
161 4 0
478 6 17
324 15 4
48 10 1
433 10 23
254 3 22
87 1 10
384 16 11
17 9 18
30 13 5
346 7 15
269 5 8
368 7 4
246 15 18
352 0 13
47 16 3
44 10 6
87 11 17
376 4 6
498 14 0
463 0 21
170 15 12
236 3 7
5 0 17
143 11 28
127 2 23
195 9 19
440 6 0
346 2 19
253 7 28
226 4 10
234 16 0
223 0 16
1 9 1
285 11 8
254 14 14
124 2 0
251 5 2
354 9 27
183 6 27
427 16 17
375 1 27
121 7 13
289 2 21
307 4 10
281 14 6
325 9 26
25 3 17
18 16 19
205 3 7
380 14 19
94 4 20
402 7 2
185 13 21
50 0 12
182 15 12
417 12 14
239 16 27
49 5 1
216 0 21
154 13 16
424 16 17
79 6 27
138 8 14
398 6 16
56 4 4
439 14 4
270 5 9
441 13 5
9 2 22
452 6 12
25 13 0
445 16 28
132 10 13
114 6 5
296 1 28
336 6 0
453 9 3
448 7 26
2 12 0
258 8 19
440 15 28
216 13 11
403 2 27
316 8 11
265 2 22
239 2 7
401 1 25
415 9 24
76 16 17
200 7 26
180 2 9
130 11 16
469 8 11
458 2 15
165 14 7
201 10 26
426 16 7
478 9 19
400 10 1
324 1 17
155 7 12
167 8 6
67 6 20
78 12 11
352 8 13
465 14 0
4 15 26
421 9 18
63 12 15
231 14 9
199 3 18
324 16 19
423 12 14
33 12 6
356 8 19
257 15 17
197 8 4
106 13 5
259 1 3
319 2 13
161 16 3
373 3 18
296 15 10
480 13 0
472 8 24
19 3 5
105 7 27
495 8 1
337 8 0
260 7 27
458 9 14
190 4 7
385 14 3
69 13 6
97 10 22
434 8 15
279 14 11
228 7 25
381 14 7
252 14 1
232 3 22
228 7 27
221 6 26
134 11 20
227 1 22
145 16 0
395 6 5
255 1 12
340 1 27
244 0 1
489 16 25
414 8 22
212 14 18
202 3 7
289 5 9
132 11 19
339 11 16
457 11 27
127 9 10
496 4 0
462 4 7
306 14 8
262 15 24
431 8 1
468 12 14
22 16 22
39 5 14
224 8 3
353 10 16
371 0 12
157 16 20
248 9 12
402 16 5
27 4 17
53 13 13
452 6 7
375 12 3
30 6 28
468 15 4
316 2 10
120 12 23
34 11 5
453 15 19
85 8 9
141 4 2
239 16 17
140 11 14
243 16 17
298 14 2
9 0 24
284 7 9
271 13 13
420 1 4
300 12 5
140 9 22
416 8 21
241 0 20
176 12 18
446 13 27
258 15 28
210 14 0
277 9 3
316 10 22
54 5 6
334 5 2
259 11 27
65 10 28
399 6 17
331 16 1
330 8 13
32 3 18
421 1 24
34 0 25
146 11 10
147 8 15
320 4 20
56 16 1
448 5 2
90 2 3
195 11 5
395 2 0
448 1 23
11 0 27
241 6 16
274 3 4
93 12 11
428 9 8
491 15 22
112 7 11
471 8 3
7 7 20
450 0 1
182 7 13
243 1 26
102 15 24
40 14 7
109 10 23
92 9 20
10 2 9
443 8 11
6 9 10
352 9 1
50 10 3
31 10 1
153 6 23
41 12 23
202 10 4
207 11 19
261 11 28
208 2 26
135 3 9
99 15 4
497 15 27
87 3 22
129 3 10
174 13 3
32 4 25
196 2 21
467 14 22
478 1 17
59 7 20
137 13 26
42 2 3
315 2 9
293 5 15
478 14 19
16 8 7
305 5 18
130 10 20
234 2 14
22 4 14
405 2 0
257 10 2
66 5 13
495 6 11
80 4 28
113 12 22
466 7 5
378 10 25
438 15 27
255 14 3
310 9 26
30 0 2
290 4 16
290 9 14
278 15 15
337 8 26
193 6 14
148 8 9
288 13 12
110 12 0
177 1 10
131 0 10
191 14 3
5 0 1
468 9 23
266 4 16
108 3 24
318 9 6
172 1 25
120 1 4
431 15 26
119 14 19
460 1 9
385 15 17
106 6 20
347 0 22
481 3 15
123 14 13
460 4 18
71 16 21
304 15 12
233 4 10
461 10 21
289 8 11
331 8 23
284 13 8
412 5 26
221 7 2
273 1 16
21 9 19
210 4 21
214 4 7
362 13 3
447 2 14
441 15 12
483 10 2
129 8 20
17 1 16
171 12 17
24 15 24
192 13 21
121 1 15
470 15 13
203 7 2
130 12 22
137 7 14
271 11 26
93 0 24
123 8 11
464 1 2
349 11 21
309 11 10
198 12 0
83 4 14
283 13 18
183 14 27
10 8 15
305 10 28
420 14 20
247 4 13
238 4 26
497 6 11
468 12 4
147 13 0
286 15 19
196 4 25
482 0 24
193 11 12
115 6 5
158 10 14
120 16 23
409 16 3
144 4 10
496 16 8
173 8 18
56 9 6
293 15 13
205 12 17
22 1 13
228 15 18
371 14 2
483 9 10
249 14 16
252 14 28
116 8 20
390 6 27
310 8 16
239 16 12
344 11 24
2 1 7
270 4 17
265 3 23
264 12 17
364 10 7
230 0 13
282 11 7
177 13 21
138 9 20
201 3 26
488 6 26
349 7 17
498 7 26
321 14 3
6 9 25
30 13 5
429 0 23
407 7 26
345 8 17
175 2 0
227 14 2
488 16 28
256 6 15
66 15 26
102 1 16
64 1 17
193 2 15
155 5 18
434 0 28
490 5 7
245 7 14
74 8 2
343 7 21
472 14 8
9 2 28
382 16 7
358 4 7
330 9 16
2 6 11
241 11 24
103 16 22
271 5 17
353 3 0
352 1 8
38 4 5
55 3 22
104 5 26
82 12 27
423 1 14
73 14 18
119 6 27
357 4 18
286 4 8
457 5 5
188 2 11
28 15 1
309 4 10
490 5 22
58 7 17
13 4 26
191 10 19
187 0 2
245 4 15
171 13 26
118 5 3
72 3 11
93 15 1
469 15 6
160 10 20
267 8 17
197 6 3
159 7 8
490 3 8
156 1 9
405 15 26
250 11 20
477 11 15
18 1 22
252 5 25
256 13 23
303 15 25
114 6 5
310 1 2
268 11 2
409 13 26
386 14 2
42 1 10
51 16 15
166 5 3
7 10 13
406 14 9
490 7 23
332 8 21
177 9 4
40 1 26
328 11 10
436 5 5
157 3 13
16 0 3
259 16 6
395 10 1
201 9 25
265 6 16
89 13 6
271 7 0
109 3 26
395 11 9
266 10 10
208 4 23
318 14 23
257 4 9
236 16 5
213 9 11
10 14 25
232 7 0
191 7 21
70 14 24
391 13 24
346 16 1
406 14 5
303 1 15
390 12 15
430 0 17
488 0 18
222 15 21
151 15 7
191 2 25
468 8 23
225 7 17
353 5 0
159 16 16
333 1 21
134 11 5
458 1 28
110 16 9
166 4 19
486 14 9
171 2 22
205 16 18
229 4 27
319 8 21
478 11 9
181 6 20
432 6 23
117 6 14
281 11 26
84 0 26
260 15 15
188 4 8
258 4 26
133 15 12
343 4 17
421 4 28
198 8 9
452 13 24
8 2 23
423 1 1
215 4 25
16 4 16
239 13 25
237 13 3
325 6 16
287 0 22
127 12 20
394 8 4
29 2 17
147 15 7
2 1 13
246 2 27
172 7 19
351 8 27
67 0 1
96 15 22
435 3 10
347 9 9
482 11 23
300 13 20
487 9 15
446 5 28
460 1 0
127 4 20
431 11 23
447 14 24
85 9 10
291 3 6
282 7 16
432 6 6
156 0 23
192 4 20
388 15 7
89 13 0
17 8 17
41 11 14
275 6 15
45 4 11
427 15 19
136 5 8
67 6 20
297 2 20
185 3 5
233 12 6
233 5 22
483 7 26
311 5 15
17 14 3
41 16 22
333 2 11
248 7 16
368 8 15
227 8 26
280 8 18
128 8 7
197 10 22
22 6 10
337 16 2
333 13 19
255 15 17
281 3 13
458 4 13
138 13 4
480 8 16
102 5 8
245 11 3
403 13 9
27 11 15
447 0 8
464 11 3
370 2 24
269 15 5
390 1 12
488 7 10
278 6 11
199 12 0
262 0 24
382 3 25
93 11 4
256 11 21
60 13 1
477 3 2
320 14 25
247 6 15
136 2 3
433 12 13
453 2 28
151 7 15
307 3 16
361 7 7
266 16 22
224 3 28
124 0 20
255 5 28
262 11 15
435 16 6
206 2 17
74 8 20
225 16 19
406 7 27
122 3 5
456 15 24
446 7 25
143 6 21
480 4 4
158 14 8
324 4 9
465 0 19
457 12 28
461 9 23
146 8 26
184 13 11
172 10 11
375 4 9
15 2 22
182 8 6
392 4 7
134 14 4
475 8 10
191 6 6
223 11 18
85 9 27
38 11 16
182 6 20
28 5 11
176 12 23
437 14 17
399 12 2
459 1 13
425 5 13
38 13 19
210 16 18
122 4 16
315 9 15
496 4 2
56 4 0
483 7 11
252 8 0
339 0 4
424 3 0
305 5 23
269 10 8
304 4 21
366 7 16
470 7 22
378 9 2
376 14 18
239 3 4
210 3 10
494 10 14
85 12 9
461 8 10
374 16 28
82 11 0
280 6 25
181 12 19
498 5 2
213 0 17
173 10 5
411 13 8
38 16 26
405 15 27
123 3 17
289 6 9
306 14 17
222 1 11
212 13 9
252 12 14
209 14 26
220 7 11
318 14 23
39 7 14
82 12 10
486 13 16
6 7 22
62 13 17
462 8 21
98 11 1
172 13 7
305 14 27
344 10 10
9 10 15
27 4 5
52 6 20
28 14 4
435 4 24
99 5 8
343 1 6
331 16 23
484 0 20
84 3 4
203 0 21
33 15 20
378 7 20
489 5 3
315 16 26
73 3 14
235 11 19
139 8 1
419 3 23
133 6 20
25 0 19
233 7 2
343 11 28
352 12 3
423 14 17
288 8 3
228 1 14
69 2 18
402 1 28
400 1 18
87 4 3
88 10 5
54 5 8
396 3 0
0 15 8
116 12 0
231 14 3
79 6 9
361 15 9
112 5 1
246 15 2
382 14 12
203 7 3
445 16 6
468 14 1
369 11 6
282 6 6
361 12 13
299 7 24
170 7 9
191 11 25
392 8 25
134 7 15
29 9 17
439 11 26
470 16 1
28 15 24
291 1 1
17 8 2
126 14 15
419 9 11
282 0 6
112 5 10
274 9 21
390 13 2
137 3 10
287 11 13
232 13 17
68 15 26
282 6 5
0 10 11
213 3 22
384 2 10
384 13 2
37 13 25
194 8 17
53 8 7
225 0 4
499 4 3
148 6 15
240 3 12
55 5 21
145 10 26
289 7 24
22 1 0
131 6 24
1 12 5
80 0 17
377 4 14
255 11 25
273 1 26
383 3 2
30 10 22
268 5 19
228 1 7
275 4 24
160 3 8
49 5 9
338 7 23
136 10 1
51 4 21
243 12 1
93 0 10
298 6 8
420 9 20
6 7 4
23 0 6
110 16 20
273 7 13
244 5 16
101 11 15
449 6 24
267 11 6
392 2 12
308 13 10
291 15 3
175 8 15
439 3 0
273 15 8
112 6 16
183 13 10
24 13 28
38 14 10
4 16 22
379 5 12
33 13 1
101 14 13
0 1 8
390 7 12
282 2 20
26 9 4
252 11 24
292 10 14
477 13 23
44 14 18
317 9 14
4 6 1
267 0 25
175 13 3
440 15 0
23 4 21
340 14 13
41 11 8
320 8 9
473 8 0
130 10 6
147 9 27
27 6 15
82 2 26
331 13 7
68 16 4
289 5 7
289 7 26
42 0 24
51 13 13
67 1 21
365 3 18
480 10 20
221 2 17
400 10 23
488 2 5
336 14 21
168 15 17
166 15 17
412 12 12
475 8 7
327 8 8
13 2 18
423 16 26
288 15 13
204 15 8
343 0 22
456 0 28
155 1 1
90 11 9
356 12 0
333 16 23
72 14 12
79 11 20
292 15 1
244 12 11
160 15 14
272 6 7
120 1 14
173 11 6
356 16 28
243 15 4
63 10 23
145 9 14
238 2 10
396 11 10
463 13 2
245 15 11
63 1 9
26 10 15
131 16 3
39 9 5
202 11 27
487 16 20
415 11 14
96 3 13
290 7 8
13 0 7
392 4 27
484 10 1
54 16 0
344 3 16
189 10 22
204 5 21
371 8 28
463 7 24
45 2 23
167 14 16
256 15 14
340 6 17
406 13 13
444 3 1
111 4 1
243 2 2
397 11 14
135 2 0
162 2 1
255 6 12
218 1 22
336 1 0
169 0 26
308 9 17
63 2 12
309 2 25
103 15 9
140 2 27
341 7 6
72 3 14
96 15 21
205 12 8
76 10 5
276 4 17
133 7 7
216 0 28
491 14 14
326 10 3
32 12 10
104 8 26
409 9 6
367 5 12
426 0 24
296 13 20
234 7 25
344 0 21
58 7 21
372 3 17
391 10 1
8 4 3
334 8 3
245 5 15
231 4 14
318 14 3
209 5 16
168 12 20
40 6 23
366 7 25
97 8 19
471 6 15
399 9 14
37 8 13
131 13 10
74 10 12
297 1 23
260 14 9
211 14 0
440 2 15
475 14 1
324 10 10
411 4 19
254 15 19
170 1 25
366 0 11
453 3 26
237 3 17
482 15 22
249 10 9
48 2 25
150 0 25
277 14 13
195 15 18
64 8 6
138 14 10
108 9 21
130 4 27
89 3 25
204 13 0
306 2 18
362 11 2
81 8 0
234 16 13
488 3 12
307 12 12
422 6 19
111 4 13
370 2 25
120 15 18
335 14 27
71 11 4
391 2 3
203 1 28
217 4 15
108 6 6
278 5 15
194 13 6
97 2 27
327 14 23
317 1 23
167 9 13
31 1 7
290 5 25
204 1 10
385 10 5
386 8 12
22 7 18
495 7 2
95 2 25
70 6 1
459 14 28
270 12 17
455 1 19
428 14 7
257 12 9
292 6 15
330 2 4
97 2 9
3 1 28
26 2 4
298 7 27
279 3 27
483 0 24
29 12 15
352 8 20
9 8 4
308 14 25
349 9 5
392 13 2
94 6 2
304 14 12
194 9 28
239 0 13
64 14 24
202 14 9
234 0 2
25 6 12
61 6 0
308 15 3
75 16 26
418 2 12
261 0 24
423 6 8
2 0 14
314 14 7
488 2 5
436 4 4
288 15 25
191 2 28
384 8 1
132 10 7
409 9 1
497 1 15
43 1 8
372 13 19
216 2 25
43 3 10
198 2 12
442 15 5
162 13 2
3 16 14
158 2 4
473 12 28
358 15 23
239 4 6
299 3 18
489 3 18
344 9 20
318 16 21
80 0 19
226 2 16
71 8 20
188 14 8
124 16 18
30 5 26
240 6 12
114 7 25
87 12 9
237 14 15
238 9 25
103 9 26
116 13 20
74 3 13
77 4 22
172 1 15
354 16 14
253 12 16
322 1 25
431 7 27
48 0 19
39 6 0
159 7 15
83 9 14
477 7 26
211 16 16
342 11 5
73 0 9
495 12 22
451 0 1
422 11 27
227 9 16
155 13 12
326 4 22
247 12 22
375 9 6
473 7 9
160 2 2
383 16 16
37 5 26
27 13 1
197 9 16
197 1 12
415 7 18
225 10 2
101 3 13
1 16 5
42 3 2
164 6 16
461 13 18
252 12 2
53 1 16
172 5 25
79 12 14
448 13 6
194 13 10
218 1 26
467 11 23
470 1 14
280 5 1
10 4 12
83 16 16
274 10 9
472 16 3
230 2 16
479 9 16
403 14 13
334 6 5
473 3 11
137 12 9
494 10 12
274 16 4
89 3 17
423 16 25
6 15 27
107 3 10
245 6 6
183 14 23
69 12 23
79 13 1
154 4 19
154 4 25
454 12 0
329 1 14
36 15 17
484 14 0
299 10 25
404 16 24
24 10 14
256 11 23
354 8 18
33 7 5
304 7 22
75 7 27
118 10 0
32 11 16
471 0 21
377 11 19
380 5 0
300 6 7
140 9 28
233 6 10
303 11 18
24 0 21
28 12 1
94 9 17
298 8 7
294 10 3
313 8 4
480 8 27
81 11 27
16 14 8
229 14 11
307 6 12
410 0 6
63 0 3
458 1 26
121 16 6
147 8 16
292 8 2
13 5 27
166 6 6
394 0 25
136 2 7
438 0 6
314 0 21
86 2 23
140 10 26
273 5 27
30 4 28
57 2 19
394 5 19
344 4 20
162 15 8
201 3 1
492 2 9
76 13 6
456 6 9
493 3 16
221 13 11
164 9 27
351 5 1
251 0 15
342 13 15
24 10 17
216 14 9
146 0 3
440 6 28
107 9 17
305 15 0
93 7 13
442 15 15
282 5 7
356 0 4
280 10 27
29 7 11
76 12 4
379 1 6
224 13 10
292 6 2
259 8 14
272 4 9
352 9 18
118 15 22
303 12 24
86 8 9
244 14 21
395 2 22
443 9 24
328 5 7
300 5 19
268 2 12
139 0 24
351 8 1
208 4 8
304 13 12
396 4 17
0 7 19
225 6 3
28 8 22
4 13 24
293 13 16
398 4 28
448 11 5
402 7 8
54 9 10
491 4 2
280 9 11
482 7 1
47 0 13
494 5 25
238 0 25
274 2 28
254 15 16
224 4 28
356 9 2
88 12 5
111 15 3
153 0 28
452 14 14
314 0 12
99 13 2
217 13 21
446 7 2
178 8 3
227 1 16
494 15 16
408 9 13
432 11 24
95 2 17
248 6 16
280 8 10
19 8 16
289 6 9
491 5 22
411 8 7
423 5 21
59 8 26
296 12 26
94 3 19
23 14 14
290 3 8
270 9 11
487 6 1
394 1 12
448 7 16
168 7 23
377 11 6
124 10 3
289 2 12
312 10 6
394 3 6
351 0 10
226 1 27
33 13 10
402 12 25
322 7 2
425 2 4
65 10 13
416 4 0
445 4 7
259 2 6
357 7 22
30 6 18
378 2 5
444 12 1
462 12 17
439 1 14
371 5 4
239 5 17
252 13 17
307 7 8
167 13 2
273 15 7
339 8 16
307 11 5
419 8 2
148 8 5
222 8 5
331 4 0
184 5 18
116 16 10
269 4 3
459 2 1
193 16 23
241 1 16
324 1 19
411 6 25
216 7 5
82 13 28
294 3 21
350 13 11
474 7 1
70 15 20
233 8 0
494 15 21
156 10 21
351 8 19
68 1 15
149 2 26
246 10 24
34 14 17
204 15 18
387 8 28
482 1 16
360 7 21
406 6 22
221 12 21
377 12 17
466 13 11
458 5 1
253 5 9
395 3 8
34 5 9
237 4 16
392 13 15
456 2 22
241 6 5
457 8 4
385 3 25
105 0 28
35 15 0
463 12 25
488 9 23
284 0 21
425 16 5
93 16 14
273 12 26
278 3 21
50 9 12
227 12 21
165 10 0
28 1 1
454 16 18
289 11 1
438 0 0
140 9 22
108 14 26
87 7 3
14 1 2
22 8 26
336 4 2
492 2 11
57 12 8
234 2 5
432 12 25
93 7 19
446 5 16
231 10 4
396 6 15
85 12 25
367 3 9
335 15 0
313 7 1
272 4 2
366 8 7
368 0 5
45 2 25
198 8 11
349 4 15
24 15 12
26 8 25
24 10 20
120 7 19
172 6 20
78 0 27
431 6 10
192 0 13
413 1 14
270 7 16
413 1 11
224 13 15
334 12 7
12 2 5
476 12 2
43 16 1
29 9 2
142 2 27
376 5 18
383 15 13
86 3 16
448 0 25
152 6 6
33 12 6
355 10 26
142 4 18
335 1 7
280 3 23
445 13 17
467 8 28
344 2 23
88 14 3
24 1 16
210 4 21
205 7 1
152 11 2
110 0 20
56 3 9
342 5 13
19 12 25
176 8 22
293 4 12
328 16 1
150 5 5
21 9 9
67 12 18
102 16 28
394 9 0
463 6 6
441 0 20
293 2 28
470 15 26
67 8 14
205 1 27
393 13 3
192 9 9
214 13 14
442 4 28
177 8 27
279 14 6
459 15 13
50 3 18
367 7 23
238 8 11
259 12 11
478 2 2
183 5 16
411 5 27
249 2 19
109 3 28
27 10 20
418 15 16
404 11 17
321 5 25
191 12 10
348 16 3
15 8 28
396 11 11
101 6 24
174 13 18
67 0 13
55 2 15
210 11 12
486 12 0
196 13 10
49 16 1
328 6 25
286 12 26
64 1 16
330 2 5
239 2 15
176 3 7
83 3 19
475 12 3
143 5 13
431 4 3
62 5 25
151 0 5
33 2 10
51 10 7
476 12 3
28 12 23
275 6 27
22 6 11
174 9 2
193 11 3
276 4 4
132 8 8
478 4 14
213 11 14
243 14 14
330 12 15
225 9 8
150 14 5
162 5 23
214 14 6
469 4 6
430 13 28
269 5 11
389 9 28
159 1 28
116 12 1
378 10 27
37 7 17
216 13 11
241 11 19
88 16 21
180 14 6
118 12 14
495 3 18
495 9 17
237 14 11
150 9 11
174 14 0
168 7 13
97 8 27
166 0 12
442 5 3
270 8 2
73 2 15
296 14 13
54 11 26
337 7 16
193 4 14
172 6 20
342 15 15
345 4 7
446 13 11
363 11 2
371 8 1
316 14 23
208 13 5
351 9 22
308 10 4
361 13 26
188 8 21
482 1 2
168 13 16
154 1 15
383 13 24
463 9 9
221 7 8
473 9 22
138 6 7
110 2 16
479 11 14
75 12 28
43 14 12
158 16 25
299 2 15
273 11 12
1 16 15
82 9 23
274 15 19
232 15 23
476 4 12
495 8 7
190 9 24
120 3 1
484 2 23
328 12 23
461 8 2
358 15 27
85 8 20
99 2 27
107 9 25
372 10 25
212 15 2
233 10 17
397 4 0
334 11 22
318 10 5
484 11 27
488 15 6
35 1 14
435 8 28
170 11 19
443 11 15
156 14 20
390 6 17
34 7 22
187 0 26
301 0 6
4 6 26
177 13 22
49 13 22
315 2 21
276 3 10
134 7 6
198 7 17
11 8 19
134 11 2
291 14 28
365 1 13
74 6 25
490 15 14
459 9 19
411 0 9
9 3 26
450 9 27
47 7 3
388 2 10
160 4 8
148 8 18
422 12 17
397 3 24
413 9 19
314 13 5
123 4 14
140 5 1
358 8 7
302 6 28
277 4 16
226 13 13
284 15 4
425 8 4
146 8 27
374 14 7
12 10 0
70 8 15
378 3 7
316 11 15
208 3 24
212 1 8
158 3 2
313 4 0
430 2 8
32 13 3
90 7 4
312 12 9
282 11 23
2 3 15
229 9 3
423 0 25
203 11 25
419 9 20
366 12 2
496 8 20
2 16 9
470 14 24
234 11 19
212 10 9
418 2 21
78 6 20
472 9 22
233 3 6
64 16 19
368 15 20
283 10 6
65 15 6
288 0 2
221 8 6
368 5 22
441 15 19
65 16 14
42 6 24
309 11 12
108 10 3
184 13 5
447 2 19
253 10 19
98 0 16
118 9 4
224 16 27
310 9 12
102 7 26
73 0 8
58 11 0
260 2 23
278 6 22
364 2 19
104 4 9
249 7 19
371 5 9
361 2 19
148 6 12
304 3 26
216 16 26
398 15 24
194 15 22
108 8 22
260 15 21
148 10 12
473 3 27
98 15 18
411 1 8
97 0 19
456 5 15
102 16 3
124 8 19
381 0 4
107 5 1
312 14 17
252 7 13
354 5 3
230 10 3
49 1 4
348 5 22
419 1 5
376 10 11
397 1 19
181 12 6
222 7 6
428 13 11
388 16 22
401 15 11
4 12 3
73 10 18
64 4 20
383 14 4
459 8 15
20 5 17
366 12 7
415 1 25
136 15 14
453 8 8
413 8 9
14 12 28
487 6 20
292 1 18
371 10 3
303 16 2
354 3 3
17 16 19
229 14 11
454 5 5
246 9 18
393 9 27
429 1 22
402 10 23
428 12 7
68 15 21
423 3 5
89 1 12
464 14 18
160 3 6
348 5 2
154 8 14
449 3 13
49 10 8
139 11 24
134 6 5
332 12 7
224 7 7
30 3 13
306 13 22
333 15 20
172 1 0
9 3 27
481 13 14
79 9 4
397 10 19
426 13 5
158 14 9
229 12 16
314 1 18
70 6 15
76 2 19
459 3 9
343 10 6
162 14 3
328 10 11
329 6 2
209 16 4
336 8 15
330 6 3
143 16 21
25 7 9
304 6 16
55 16 1
90 8 19
406 6 3
22 10 4
66 3 3
17 12 7
440 5 17
300 16 20
33 11 15
363 14 8
22 10 0
434 9 4
488 11 27
384 13 20
127 3 19
55 8 28
274 9 21
417 15 9
268 16 20
3 4 20
188 2 18
77 0 15
469 7 15
184 14 9
6 13 27
386 15 7
258 16 24
483 9 9
180 16 6
475 2 18
257 6 18
406 13 28
97 14 27
110 10 1
103 1 11
306 0 15
471 15 23
426 14 12
58 8 17
101 7 12
11 9 8
384 9 18
278 6 9
88 13 3
157 2 18
73 0 7
344 1 28
21 8 25
305 3 10
120 13 22
280 5 8
295 5 14
54 10 15
94 4 8
415 16 12
161 14 22
142 13 23
406 6 7
59 0 4
65 10 25
357 11 0
341 5 17
98 3 15
281 15 26
344 8 21
479 6 12
236 4 2
184 0 27
336 16 24
388 6 11
230 0 26
86 4 16
481 6 5
98 1 26
101 10 3
221 7 19
56 9 7
486 10 27
418 9 12
65 5 5
475 12 18
330 7 18
387 1 9
317 6 21
134 13 18
421 1 9
86 15 11
483 14 9
256 8 11
233 7 16
335 16 17
134 4 0
27 12 28
285 0 2
297 15 19
32 14 24
432 13 10
458 8 3
31 15 22
452 11 12
343 12 17
145 14 16
362 11 4
133 6 7
499 6 12
243 0 9
30 6 21
436 12 5
196 11 17
122 13 2
228 16 4
403 4 0
79 12 16
325 13 7
257 10 16
41 4 7
84 13 26
381 13 2
143 9 19
267 3 2
194 14 5
250 0 17
195 8 23
93 11 3
299 15 24
16 8 22
110 11 5
240 11 28
65 7 8
96 10 22
348 2 20
9 2 4
369 12 5
352 0 27
120 12 26
349 16 3
444 16 5
97 3 0
490 8 17
187 4 18
36 11 24
149 5 7
159 16 19
229 6 6
482 6 18
175 11 6
190 7 7
40 14 26
253 13 4
212 16 21
5 11 16
357 7 12
120 4 16
379 8 21
128 2 16
197 8 7
229 6 19
405 9 16
304 15 16
461 15 12
18 14 16
232 4 17
179 9 22
354 7 7
489 4 15
79 12 7
427 16 15
65 7 26
17 12 19
476 16 3
287 12 8
280 4 15
478 3 11
395 11 4
105 16 28
212 9 16
119 12 24
237 12 22
122 11 11
489 16 22
188 15 25
65 4 2
349 11 3
324 7 6
16 2 0
82 9 8
10 4 22
53 16 27
318 12 21
491 12 14
151 14 20
228 2 2
138 1 20
492 13 6
150 1 12
86 12 1
471 11 9
310 14 28
465 15 9
341 8 25
235 9 2
238 16 19
113 8 17
373 7 0
372 6 26
355 13 20
469 11 11
1 4 19
496 8 22
160 11 13
118 8 15
164 10 24
129 1 11
8 6 19
111 8 9
464 3 13
188 2 1
360 6 15
94 0 14
119 12 9
12 1 16
473 1 26
431 15 26
52 9 20
338 15 21
295 9 20
18 14 26
408 3 27
277 2 27
444 9 6
171 9 15
460 3 15
439 7 19
276 5 18
38 4 11
474 16 21
11 13 10
185 7 1
159 12 17
216 16 27
189 16 12
378 14 9
378 9 25
444 9 9
12 7 23
20 5 22
482 12 2
300 2 19
261 2 2
252 7 20
21 9 26
204 0 6
202 0 0
217 8 8
433 12 22
419 2 24
107 13 7
345 10 16
175 7 27
124 16 8
68 16 19
291 1 26
242 7 4
436 11 19
289 9 19
25 7 0
19 2 18
443 9 0
134 7 27
209 0 16
93 1 22
459 11 16
344 5 11
117 12 27
235 13 9
307 13 12
470 12 25
494 2 10
414 8 4
84 15 15
180 3 20
337 12 28
313 9 11
470 10 24
226 8 4
251 5 8
452 13 12
291 11 27
0 16 9
137 3 24
144 11 0
139 4 19
197 4 10
79 13 15
133 12 5
6 8 13
265 6 9
459 3 20
394 3 16
493 8 20
425 13 2
411 7 22
196 8 11
305 7 18
178 4 21
392 9 5
153 8 10
336 4 12
330 0 7
240 16 1
114 9 7
290 6 3
209 11 10
232 7 14
373 12 12
429 12 3
364 15 10
268 9 24
294 13 9
109 10 5
144 5 13
454 2 26
83 12 5
461 4 18
214 3 24
448 4 10
56 4 15
135 7 13
167 9 28
89 15 16
384 2 12
186 9 5
15 13 16
442 5 11
401 16 9
308 12 0
478 6 2
5 8 15
231 5 4
212 15 22
113 1 9
480 4 7
50 1 25
124 11 26
436 16 18
94 5 10
490 11 17
445 2 15
345 3 6
126 0 0
269 7 7
288 4 17
236 7 25
370 6 20
279 3 4
197 1 26
364 14 16
451 1 11
482 4 26
15 9 12
117 14 25
468 2 11
92 13 20
439 0 14
478 12 10
116 16 12
149 8 26
496 2 13
101 13 15
49 9 24
199 2 14
220 11 24
37 12 4
349 7 28
444 0 14
14 4 16
266 13 2
120 8 18
333 9 19
236 2 2
342 13 17
344 16 4
198 9 14
221 12 4
43 10 3
247 11 16
157 14 9
58 1 5
87 2 23
58 1 7
137 12 27
63 2 15
55 6 10
184 15 0
6 9 27
18 10 5
334 8 22
410 5 0
388 3 23
375 11 14
475 7 20
405 12 12
421 3 23
246 9 7
15 12 18
398 2 1
278 14 13
117 13 6
425 0 7
44 6 7
456 11 17
367 8 12
471 5 20
110 6 21
408 2 18
277 12 14
404 14 10
235 9 8
269 16 18
355 8 9
19 3 17
150 4 10
8 1 6
425 12 8
243 6 20
368 11 3
494 12 25
41 12 13
49 7 8
468 14 14
75 5 1
428 7 13
97 15 22
244 13 0
393 2 5
277 9 17
155 13 14
92 2 25
293 8 27
315 3 6
460 13 21
140 14 5
294 16 10
258 10 22
297 3 27
271 15 13
234 1 20
301 16 4
226 14 6
274 9 2
305 15 23
1 7 6
491 14 21
24 12 20
338 6 3
472 2 13
264 3 8
188 4 10
309 8 10
477 1 0
34 2 20
95 12 12
173 1 4
115 1 18
35 8 9
26 8 26
245 13 8
401 11 15
261 8 3
308 6 20
485 9 4
219 13 9
239 6 3
221 2 10
167 3 4
180 3 25
328 1 27
341 13 8
20 7 3
118 12 15
488 0 25
94 3 20
85 10 1
12 6 26
28 0 21
391 10 4
128 4 27
300 9 5
19 9 14
353 14 11
86 14 11
149 1 6
146 15 3
261 15 17
155 13 26
370 1 0
429 4 17
498 8 22
238 8 13
311 16 26
332 9 20
340 14 10
110 5 0
163 0 15
447 3 1
139 16 18
275 1 9
254 12 2
18 2 20
497 15 7
115 5 18
24 2 23
238 8 0
212 12 7
62 3 8
2 7 11
353 10 28
375 5 4
137 16 27
235 5 27
230 5 19
107 0 23
343 9 4
229 10 26
186 6 24
102 12 28
0 15 17
106 11 12
486 15 7
199 3 20
267 14 22
297 8 14
62 8 6
395 13 12
180 6 14
211 9 7
94 1 4
286 5 22
203 0 10
455 15 10
266 16 11
80 13 22
379 0 14
296 0 0
95 1 24
437 6 12
323 2 3
191 16 23
382 4 15
14 6 24
383 5 5
328 1 15
441 8 5
238 12 3
480 4 26
241 16 17
400 9 14
414 5 20
197 16 24
211 15 16
487 13 15
455 1 8
361 10 23
253 4 8
340 14 10
92 9 6
467 4 10
152 8 5
7 15 1
91 11 17
418 5 23
107 4 6
416 11 15
97 11 8
179 13 6
185 1 28
248 4 2
363 2 5
86 5 21
398 5 12
227 14 7
262 8 4
140 10 18
355 11 1
15 6 13
70 7 23
282 7 2
62 2 9
481 1 25
161 8 4
240 8 18
51 8 28
280 0 3
382 6 17
179 2 23
174 6 7
251 1 18
467 8 19
499 12 7
1 2 11
334 11 11
25 12 22
269 2 12
388 10 20
260 12 23
216 5 16
388 16 23
421 12 11
458 5 26
376 1 4
204 13 28
43 14 14
196 1 21
485 6 19
440 14 6
321 5 28
134 7 26
466 13 10
414 6 6
420 6 21
67 15 5
470 10 27
133 3 12
468 1 0
285 9 7
385 4 3
15 16 21
158 16 15
76 10 8
468 6 15
62 4 22
1 16 5
43 14 26
95 13 28
491 7 3
326 6 16
31 2 8
271 3 14
390 1 17
208 2 22
53 2 4
151 0 5
161 1 9
149 14 13
291 8 12
464 16 19
74 8 19
457 6 2
303 4 0
331 0 3
425 2 2
392 12 1
241 8 21
130 11 23
387 12 0
280 15 23
493 13 20
158 13 22
294 15 4
402 1 6
288 14 11
458 14 4
201 1 12
120 14 9
425 13 8
348 7 24
197 16 26
300 8 27
410 6 6
259 8 7
73 9 10
228 4 13
435 5 28
152 12 22
74 0 26
340 11 20
211 13 12
394 6 4
91 12 19
218 10 12
346 13 4
104 12 13
248 13 13
411 9 28
29 13 7
97 6 22
20 0 16
282 0 10
463 0 21
183 16 28
76 4 5
206 14 18
61 1 18
214 14 18
218 11 14
54 13 21
87 5 5
372 11 27
387 5 28
43 6 22
23 4 4
343 14 5
335 0 5
139 12 16
73 4 6
130 15 22
195 11 14
342 13 22
349 8 19
384 13 24
295 4 21
290 0 14
407 0 25
269 11 19
197 16 10
258 14 28
407 1 18
489 1 28
60 14 19
245 6 15
326 2 3
233 10 17
53 8 21
472 7 0
258 10 18
427 6 23
173 5 7
225 3 24
460 6 11
291 14 23
442 16 17
137 0 10
442 2 25
348 11 21
83 3 19
76 2 4
8 15 5
127 1 15
406 8 14
482 8 9
293 2 25
456 10 2
251 4 9
81 12 0
451 5 16
344 6 0
470 5 26
67 0 26
292 3 2
89 10 24
41 4 10
419 7 27
284 13 5
370 7 26
49 9 8
202 16 23
442 11 20
203 11 4
383 14 25
281 12 8
293 16 17
271 13 26
125 2 6
17 14 22
182 13 13
264 16 22
229 14 20
151 10 0
353 1 18
474 10 23
223 4 27
188 4 28
328 3 12
49 4 0
281 10 22
230 4 3
262 1 23
389 6 20
148 5 11
324 1 10
49 8 0
344 12 27
5 5 26
26 11 2
107 5 20
442 2 20
21 10 26
2 11 14
369 8 27
59 16 24
424 10 9
98 2 2
156 9 17
15 9 20
84 16 14
470 14 14
205 8 7
245 7 3
195 12 16
452 3 22
287 3 26
291 14 25
294 3 15
492 8 15
433 0 17
12 7 12
463 12 8
99 7 4
447 0 2
2 15 26
192 2 6
365 9 11
488 9 4
364 8 2
2 0 3
270 3 8
137 12 0
90 2 3
59 3 10
77 11 18
492 2 3
430 13 24
129 10 15
276 10 16
440 9 3
266 13 16
348 5 2
132 10 21
419 16 24
108 6 0
410 14 0
42 12 26
63 6 24
486 1 10
402 10 16
25 11 25
282 0 9
112 15 24
136 10 0
279 3 27
430 16 27
321 7 20
450 16 26
380 6 20
362 10 15
425 15 7
90 12 4
327 15 20
287 14 0
241 15 26
387 2 2
235 3 24
457 14 27
163 12 20
90 4 9
145 10 10
355 12 28
306 7 23
329 0 26
493 0 4
175 5 3
336 12 21
310 2 2
463 10 21
4 8 23
257 5 12
460 5 1
20 3 24
246 9 11
27 9 14
393 15 26
85 15 14
457 1 25
21 14 5
151 11 5
408 2 15
371 5 9
466 7 19
335 10 14
351 7 7
38 1 0
113 11 4
360 10 2
386 8 24
107 8 21
18 7 23
154 14 10
259 12 14
433 1 0
455 13 21
323 10 27
395 12 1
272 2 6
75 1 26
340 12 8
233 4 12
0 1 19
91 9 19
17 7 16
313 10 15
389 14 8
351 7 7
89 10 25
60 1 7
95 11 14
318 7 10
405 16 24
341 14 21
163 12 3
90 4 20
311 1 3
474 5 21
443 9 26
212 12 12
466 3 1
39 12 12
481 3 19
172 15 3
430 15 8
398 16 8
25 11 28
73 9 17
8 7 9
29 12 10
452 8 14
135 11 6
454 11 15
346 12 25
16 6 22
264 12 4
251 6 11
340 5 27
472 2 9
91 13 22
333 10 20
476 8 26
231 1 10
467 13 6
207 7 26
421 2 19
326 6 19
63 2 0
99 10 9
304 10 23
124 1 2
334 1 21
328 10 8
308 3 12
310 15 18
213 1 11
281 13 15
72 8 9
303 14 21
60 15 18
444 14 11
440 9 12
404 14 19
489 5 19
110 5 28
272 13 26
83 6 2
341 10 11
476 14 11
139 16 7
452 11 14
169 16 11
494 1 1
326 5 16
71 2 2
260 0 19
435 8 12
245 16 11
396 4 1
318 9 11
287 10 24
423 7 26
276 6 13
64 13 16
200 2 22
406 2 24
25 8 8
146 3 1
330 6 14
15 13 19
258 3 4
353 4 27
76 14 16
23 6 11
260 4 18
277 9 12
277 14 11
460 1 3
306 11 28
176 14 8
137 0 3
350 15 21
479 8 18
420 7 2
198 0 14
335 15 17
142 11 6
32 11 17
349 5 21
258 16 12
356 12 15
449 9 23
474 13 21
394 6 9
160 9 13
274 9 24
467 4 2
150 14 19
247 14 4
387 8 5
458 0 11
186 10 15
204 7 1
430 10 19
229 4 12
25 12 22
101 1 17
301 9 24
431 13 22
332 16 28
358 11 11
412 0 8
313 4 20
214 13 18
400 13 9
94 12 16
330 14 15
451 13 20
291 14 13
152 7 23
91 0 4
259 4 27
131 13 19
216 14 15
263 13 15
253 1 5
113 10 28
129 4 28
151 12 15
455 10 0
298 12 10
269 6 18
301 12 12
275 15 16
272 9 10
306 4 24
113 15 19
45 12 23
451 3 1
26 1 13
55 7 15
290 9 21
483 7 22
481 9 6
215 4 0
74 2 12
256 9 25
354 12 10
31 10 12
351 15 26
187 15 11
33 10 4
187 7 7
396 7 18
94 13 11
42 13 28
268 4 1
13 11 10
36 4 16
78 9 22
404 13 26
340 13 1
191 0 26
36 9 28
257 2 18
196 16 22
415 11 27
38 12 13
320 5 3
33 16 6
278 15 19
84 9 2
142 8 14
209 13 15
496 12 3
105 12 12
187 2 13
374 8 15
285 12 13
278 4 15
201 15 13
436 7 18
318 6 20
123 14 9
46 6 20
170 11 24
62 7 22
15 7 21
108 3 18
165 4 19
405 13 3
363 14 15
11 14 22
427 10 1
136 5 15
350 10 11
478 6 26
88 6 11
407 2 21
218 4 15
326 13 24
292 11 11
498 0 13
269 1 19
190 7 27
445 4 6
280 0 24
294 15 18
206 4 4
161 8 14
419 5 25
358 7 26
498 0 22
336 12 15
492 16 1
412 1 28
459 4 8
435 10 12
296 0 4
385 6 19
413 6 26
176 9 20
265 6 3
15 11 0
391 12 9
435 8 10
38 7 21
282 8 25
376 3 2
319 14 1
342 9 18
482 3 28
487 10 27
474 8 5
472 12 20
39 5 11
207 1 12
327 7 18
291 9 0
347 1 3
381 6 24
82 12 27
286 4 22
0 6 2
336 10 9
406 8 18
338 10 3
427 13 24
100 8 1
395 6 23
6 3 5
70 14 23
317 14 27
490 4 24
230 12 18
351 5 10
94 9 9
190 13 10
498 14 23
322 2 0
120 16 25
483 8 20
133 10 18
0 8 17
44 13 19
84 8 5
3 12 25
17 11 19
207 2 27
162 8 9
54 1 2
353 5 14
455 9 25
386 13 17
209 5 17
23 7 8
390 2 2
229 11 9
304 6 17
236 12 13
27 4 28
104 12 3
344 4 24
148 15 9
466 10 4
26 9 11
487 5 3
480 16 8
305 14 6
115 14 16
310 4 22
372 13 5
138 7 25
400 10 16
14 6 18
485 4 9
121 2 14
479 8 11
344 2 24
490 2 1
214 7 26
232 7 20
164 3 2
189 8 27
304 1 7
423 5 6
206 7 14
162 0 12
90 8 24
112 8 8
161 10 7
444 2 11
178 10 11
471 13 25
408 11 6
363 0 21
10 15 11
180 10 11
289 5 18
299 13 24
341 5 3
237 1 16
467 3 11
246 10 13
114 3 18
118 14 8
40 15 19
187 3 24
224 7 27
367 11 13
190 9 17
409 5 10
257 16 2
299 15 0
288 5 17
22 8 0
435 13 19
146 15 20
491 3 10
64 14 5
124 2 7
92 6 14
497 13 22
197 8 4
376 6 18
255 4 9
243 10 22
123 6 18
109 15 26
327 4 21
465 11 21
494 10 18
150 2 21
184 15 28
155 0 8
176 2 15
490 5 13
410 16 22
86 11 20
396 6 26
242 1 20
308 11 19
183 0 14
387 7 15
376 12 18
97 7 9
161 4 18
307 14 20
490 10 12
109 5 28
473 8 28
292 9 26
440 4 27
430 3 8
224 12 26
178 15 5
328 4 6
65 7 5
338 8 6
0 14 24
431 15 7
315 2 5
409 15 13
40 8 17
315 13 12
186 11 16
255 5 23
305 15 25
468 5 19
275 3 8
347 4 21
440 2 6
446 8 18
212 13 23
409 1 2
205 8 23
117 12 4
341 5 15
90 14 23
289 3 16
242 16 12
467 3 0
257 15 21
321 1 19
242 8 9
114 13 10
70 5 12
111 9 26
120 12 24
364 1 25
126 5 15
229 16 13
150 4 14
471 10 9
89 6 12
201 1 7
52 16 6
73 15 2
344 7 28
192 9 20
6 8 12
441 15 12
338 5 22
187 4 11
492 14 20
343 13 7
401 9 7
305 0 15
32 4 15
220 9 11
452 6 5
2 0 13
97 8 7
476 3 27
142 0 25
43 8 6
492 0 23
359 9 20
87 10 3
258 5 19
225 2 8
465 6 8
488 9 27
211 13 20
450 7 28
98 14 14
41 0 20
31 1 14
208 14 21
279 16 13
194 12 20
308 0 23
320 10 23
360 12 1
396 16 26
44 0 2
416 1 2
315 15 28
136 16 3
294 3 10
186 8 5
399 14 11
193 0 10
269 11 24
96 4 4
496 1 28
122 8 12
260 14 0
410 13 17
107 0 18
146 1 22
421 5 24
495 11 13
33 1 27
248 0 27
9 1 1
21 16 15
475 12 27
373 9 26
372 0 20
264 13 8
337 6 18
274 7 18
41 4 22
383 0 20
213 10 12
175 5 4
457 16 21
138 1 27
94 16 15
36 1 0
444 14 2
146 12 22
21 14 28
332 9 13
201 6 16
410 9 27
487 9 8
388 13 4
192 9 5
473 1 26
25 15 24
437 2 5
440 0 17
168 4 13
86 10 25
177 1 8
352 5 3
62 8 8
358 0 19
262 6 5
355 6 20
333 10 23
384 11 18
246 15 3
190 6 26
428 12 28
405 11 3
153 13 16
410 0 26
463 8 21
496 3 0
470 3 19
188 7 19
490 6 13
207 14 10
455 7 4
200 4 24
344 2 4
9 5 7
326 6 16
471 0 19
419 16 20
9 6 6
473 10 6
194 7 7
363 13 16
490 11 23
491 8 1
132 7 22
278 11 25
479 1 18
456 10 4
401 7 21
163 7 24
157 4 18
467 5 10
470 11 3
444 2 10
70 7 0
126 16 7
429 11 0
75 13 1
192 8 4
251 2 27
127 2 10
304 16 22
50 15 15
222 15 15
455 6 15
336 16 26
226 2 7
17 13 27
144 13 0
239 16 27
179 12 4
84 7 20
101 13 27
82 15 1
467 10 27
350 8 13
406 4 2
385 5 6
47 3 13
274 0 28
219 7 15
132 9 18
494 11 22
493 12 7
9 8 3
179 7 14
67 10 9
212 10 9
75 9 14
44 5 13
202 2 6
137 2 0
24 11 17
181 0 16
125 15 10
359 15 9
445 11 21
456 5 0
403 14 23
236 5 10
170 11 14
186 3 12
384 9 6
425 11 14
120 13 22
210 0 14
87 4 3
361 13 4
392 16 9
104 3 18
249 5 20
103 3 9
308 8 8
252 14 0
337 7 10
71 7 14
350 8 7
137 4 24
482 3 18
347 13 25
450 14 20
321 2 25
397 16 1
332 12 10
305 8 26
222 3 4
478 7 17
167 16 19
440 14 5
409 16 25
406 3 13
456 5 19
424 9 2
268 7 24
197 13 13
466 13 12
248 10 25
16 8 13
273 0 20
75 8 26
476 11 27
166 4 27
246 2 21
403 4 12
456 9 18
169 4 13
227 2 20
146 5 16
449 4 19
82 15 24
128 6 23
289 11 1
197 1 26
239 4 7
3 7 3
486 3 19
64 9 6
35 2 7
137 14 20
13 8 7
495 11 27
30 14 15
203 0 25
343 2 11
195 5 13
253 15 24
419 7 2
0 3 13
19 10 7
149 8 24
301 11 20
489 4 25
206 14 17
306 9 5
177 5 21
202 2 27
240 10 19
159 5 3
307 5 8
357 9 19
178 12 2
34 3 22
43 12 0
116 10 28
495 3 12
17 8 19
93 4 11
193 16 27
53 9 13
237 12 26
103 6 1
337 7 9
457 12 16
289 3 21
363 1 21
259 16 27
187 4 28
164 8 24
78 0 22
142 13 12
8 13 25
143 14 13
295 11 18
46 0 10
295 14 6
272 1 27
157 16 21
101 9 3
24 6 26
133 11 22
324 9 17
38 0 23
320 13 0
272 8 23
493 0 24
227 4 24
64 9 12
255 7 11
94 0 14
493 2 11
195 14 26
452 13 17
355 14 24
149 8 18
462 8 3
287 13 23
57 3 24
261 0 13
14 10 23
285 12 8
428 2 12
323 8 9
330 5 21
416 8 12
233 15 19
133 7 28
119 8 23
317 0 3
278 4 15
268 11 19
465 9 10
135 7 23
124 7 6
221 11 20
75 10 17
333 14 1
471 5 4
340 8 24
162 13 2
434 9 22
286 7 17
372 2 15
71 5 28
313 3 4
347 16 1
29 3 10
433 5 1
259 8 20
58 5 3
103 8 22
209 13 19
156 9 11
448 12 10
299 7 0
137 15 21
265 15 28
445 13 14
82 5 20
218 6 20
200 11 0
109 15 23
445 10 25
5 11 13
341 15 9
154 9 23
131 6 26
56 6 23
11 13 11
196 14 2
493 3 2
85 1 15
420 3 10
298 1 12
258 16 4
429 12 8
458 1 25
12 2 15
126 10 9
85 7 8
72 11 2
240 4 13
232 6 15
217 6 2
75 10 9
348 0 4
142 16 15
121 9 18
372 11 11
111 4 10
172 1 17
298 11 10
192 5 8
194 9 3
440 2 14
378 4 3
59 15 28
466 9 3
187 0 21
289 9 6
357 7 22
112 5 5
46 11 25
172 14 25
462 5 24
111 14 8
30 16 8
182 2 19
37 9 10
258 11 27
162 8 21
419 1 5
227 16 5
79 14 27
292 14 6
395 1 7
98 1 4
59 7 21
247 12 21
13 13 9
304 16 6
264 12 6
127 12 3
227 1 14
69 5 1
55 8 21
135 10 23
106 9 19
231 7 3
210 1 0
7 4 4
215 10 2
182 10 25
393 8 9
179 5 11
297 16 1
191 0 0
58 2 4
7 16 7
404 9 5
205 11 18
469 7 22
427 8 13
228 4 16
357 4 27
151 0 18
121 14 27
18 13 1
39 12 23
242 12 11
329 6 20
84 4 15
6 15 1
287 4 12
115 6 28
37 2 27
115 2 23
191 14 23
482 3 17
0 15 27
432 13 21
139 13 8
401 16 1
190 5 13
54 9 10
435 8 18
392 13 26
375 13 4
121 15 23
325 0 13
455 4 17
336 7 2
124 14 3
7 3 9
282 14 22
92 14 21
227 15 25
136 12 22
254 7 21
271 8 3
470 14 2
284 15 21
424 0 11
142 6 27
310 7 19
416 3 1
249 16 3
427 16 24
122 6 10
75 8 10
0 11 5
160 5 5
368 13 11
108 5 1
377 13 28
482 6 0
297 1 22
365 11 18
3 14 18
360 15 0
149 12 9
448 15 7
88 10 4
382 16 22
467 4 19
210 8 22
159 6 13
380 12 12
237 7 6
313 15 16
419 6 7
257 4 21
219 7 22
298 2 17
385 12 23
36 10 6
428 5 28
238 10 18
91 10 21
255 4 13
392 11 0
160 1 5
283 11 12
476 15 2
382 6 12
74 6 7
135 6 8
275 14 4
496 13 13
33 12 5
155 9 24
244 6 17
54 13 23
313 13 6
61 3 1
109 16 26
412 8 12
392 9 2
59 14 27
252 10 23
419 14 21
65 6 12
42 11 28
491 8 26
374 16 12
125 1 9
389 16 0
153 0 28
458 1 1
191 16 13
143 16 9
49 7 8
231 10 11
372 0 26
491 6 19
125 9 23
444 16 19
93 11 1
74 5 3
166 12 0
491 10 22
19 9 11
307 2 25
59 11 20
499 7 17
161 4 14
477 10 18
250 14 10
146 15 0
345 7 2
55 9 28
155 1 15
435 7 27
375 4 21
242 1 5
402 8 11
280 7 16
330 6 11
432 4 1
419 16 24
376 4 1
65 6 5
357 4 18
495 7 2
456 1 15
117 7 1
357 13 21
75 1 0
161 2 20
325 15 20
286 2 9
167 5 12
381 3 27
126 4 23
241 1 0
377 10 3
29 10 6
82 5 28
384 1 15
201 12 4
364 2 11
336 16 10
289 9 0
326 10 20
85 13 26
329 6 28
335 7 25
332 14 16
41 10 17
207 3 22
329 7 27
300 4 7
46 16 9
3 5 5
127 16 21
449 15 19
389 16 24
274 4 23
184 8 1
83 1 21
272 0 19
31 14 12
59 6 15
201 0 24
23 12 28
387 6 5
58 16 15
306 6 17
72 6 10
19 8 27
275 1 19
21 4 16
268 13 28
109 11 11
473 9 26
291 10 24
297 13 12
112 14 22
331 6 24
40 5 15
16 11 22
276 14 19
218 7 22
299 1 20
211 6 9
497 14 10
295 3 23
426 4 6
363 1 5
203 4 11
344 15 13
193 4 15
148 15 12
73 3 19
377 7 5
110 4 16
32 16 27
59 9 20
180 10 23
496 11 25
438 5 21
266 14 11
88 10 6
435 16 1
69 10 14
386 15 14
391 1 1
365 6 28
134 11 25
13 10 22
436 11 17
198 11 4
323 7 8
281 15 18
55 8 20
462 15 19
499 5 20
392 9 5
146 6 14
108 5 0
217 9 22
236 14 21
280 1 11
241 0 10
292 8 11
415 12 24
416 14 13
147 13 12
280 5 18
126 12 23
349 2 6
136 7 15
322 1 10
468 0 25
206 2 16
331 11 7
484 7 3
362 12 21
397 3 10
152 0 15
292 1 7
422 12 20
51 16 13
389 15 27
341 4 5
197 2 16
118 0 21
369 13 13
421 8 5
385 8 22
411 8 16
341 12 16
297 7 4
184 4 18
7 11 23
350 11 18
343 11 20
122 4 12
53 14 7
478 6 4
397 10 24
300 3 10
127 12 1
451 1 7
300 1 7
122 0 13
459 10 13
261 2 2
239 2 10
214 1 3
413 15 8
45 11 13
100 15 8
329 3 10
272 12 14
115 3 3
201 3 13
222 13 20
4 9 2
143 0 12
367 9 18
23 5 21
267 15 2
133 11 18
458 15 9
335 8 18
107 4 2
432 10 6
70 15 2
362 9 2
355 13 10
186 16 0
271 7 6
17 8 11
396 15 21
209 6 16
332 8 19
78 9 23
121 6 23
442 10 15
69 11 5
89 8 10
433 11 22
227 3 1
19 6 6
329 1 19
393 11 16
288 12 17
297 11 26
283 3 15
130 16 24
445 5 25
116 13 4
206 2 8
336 7 11
158 0 2
63 3 20
452 5 6
236 16 6
190 14 15
376 12 27
404 7 14
87 16 5
266 11 0
48 14 8
443 4 12
361 4 20
214 9 27
258 6 26
35 11 7
411 4 25
255 1 27
214 0 26
117 7 2
23 13 7
168 8 5
142 0 1
114 8 16
398 2 8
237 15 2
278 14 9
31 16 27
235 3 4
475 14 1
324 7 25
185 10 7
185 7 4
253 5 1
482 11 1
276 4 19
117 11 19
114 7 8
296 3 7
117 11 11
209 10 27
128 10 28
132 8 15
468 10 7
43 11 8
312 2 26
306 9 15
46 0 16
494 9 3
243 0 22
424 7 7
400 0 20
316 3 21
129 5 3
197 14 11
481 7 3
472 11 0
203 5 24
52 8 8
346 1 4
377 8 6
470 1 3
33 9 3
62 13 0
327 10 6
420 10 25
95 12 15
23 10 0
45 16 11
485 6 21
498 9 21
473 3 17
375 15 21
96 4 7
184 11 5
209 14 27
287 2 28
384 1 24
81 13 3
13 14 6
481 15 10
115 12 20
456 16 9
19 4 14
17 10 21
160 2 15
44 16 12
329 1 13
492 11 24
342 11 26
284 14 9
333 11 19
435 4 6
209 15 7
168 0 10
292 7 15
219 3 20
325 12 1
285 14 19
386 7 7
385 1 28
370 7 17
283 8 19
45 14 2
438 15 7
408 1 1
123 1 15
9 8 28
256 1 5
354 13 4
74 10 14
192 12 5
426 10 15
245 0 17
76 0 17
29 12 16
402 6 6
98 10 17
174 15 1
154 8 22
30 7 22
224 11 3
396 12 24
324 3 10
108 2 10
10 11 14
36 8 5
181 11 8
265 14 1
298 2 10
448 9 12
37 9 2
73 0 10
127 4 0
86 16 28
9 7 23
441 12 1
215 11 6
126 4 19
440 7 2
434 13 11
183 15 3
160 5 15
188 15 0
331 3 0
168 6 15
55 14 0
465 16 22
316 10 21
71 2 28
213 11 23
60 14 10
356 5 10
333 7 23
71 9 4
378 6 11
415 15 24
227 1 28
325 8 9
385 4 14
312 11 25
331 13 21
486 9 3
120 9 2
114 8 2
405 9 17
473 4 7
140 15 23
127 7 12
84 14 6
129 0 15
299 12 11
127 1 1
372 11 0
93 3 9
461 0 26
142 13 9
85 15 23
174 15 23
337 2 26
175 1 9
497 15 21
420 6 23
246 5 16
432 9 4
66 15 5
246 7 12
281 3 8
197 10 26
256 2 18
110 7 19
413 6 21
156 2 5
83 8 8
306 9 15
260 13 19
85 13 7
139 12 11
144 0 22
317 2 8
431 0 13
495 10 12
323 1 2
107 12 9
459 12 19
460 8 3
14 2 1
320 6 17
250 16 7
361 7 27
223 12 18
130 5 14
465 4 15
80 2 11
184 10 24
18 16 24
419 7 7
237 8 3
119 15 22
43 15 26
112 7 23
32 6 12
344 6 6
127 13 10
34 7 4
375 9 10
328 5 20
57 6 3
131 1 11
54 2 25
431 2 9
20 2 13
485 6 28
341 15 20
160 8 1
117 0 18
374 14 22
26 6 17
443 1 1
426 11 10
491 10 27
26 6 16
496 14 17
308 3 28
243 6 12
315 16 27
31 2 11
281 0 20
169 0 19
70 7 4
144 2 3
404 15 10
141 14 23
27 9 9
367 7 4
237 10 5
132 15 6
194 16 15
476 12 4
85 4 11
469 2 16
165 2 2
298 15 14
329 11 18
116 7 17
431 0 21
348 16 3
304 10 10
140 12 24
188 9 16
286 12 24
291 3 2
149 5 21
271 12 18
299 0 4
309 4 15
135 4 18
486 4 24
116 4 15
41 11 21
234 8 4
207 6 14
33 14 10
327 2 6
86 8 4
254 0 4
398 7 21
308 13 19
78 8 5
189 5 14
183 13 23
399 0 13
386 8 11
274 14 10
345 16 10
427 14 4
347 1 19
487 5 25
352 12 23
372 9 28
340 13 12
102 13 4
330 7 28
281 10 7
450 15 5
454 4 7
442 15 3
51 15 7
338 9 6
166 16 26
229 7 27
407 3 18
357 15 4
201 16 5
256 7 7
6 9 6
65 3 6
264 6 20
43 16 13
255 8 22
448 10 0
175 15 7
389 7 28
27 1 1
239 4 28
474 5 16
302 3 21
98 9 15
395 0 8
146 3 6
398 13 18
250 5 4
382 13 2
464 2 10
245 11 7
110 5 25
67 12 7
96 3 19
246 6 20
426 1 1
121 8 24
216 12 17
292 9 0
89 12 3
479 4 28
21 15 24
41 12 11
357 7 17
22 16 6
147 11 22
288 10 26
343 8 2
263 0 27
129 11 26
44 15 7
475 11 18
457 7 28
146 7 2
32 15 2
228 13 9
172 0 11
457 5 14
465 7 24
94 10 0
491 10 11
10 0 6
84 8 17
347 1 18
118 9 1
382 11 11
37 5 16
303 11 15
319 3 16
288 4 17
360 12 21
399 8 0
236 10 18
49 4 24
373 4 10
25 6 22
218 1 16
33 4 3
2 10 21
192 2 23
488 1 15
194 1 25
103 4 22
227 11 19
36 8 14
462 1 19
31 11 13
305 10 2
288 15 18
385 8 6
295 13 21
288 5 27
215 5 26
13 7 18
283 15 0
410 3 20
166 12 0
162 3 5
152 12 20
28 3 9
343 4 3
321 1 7
121 9 22
250 14 7
458 14 26
81 1 8
497 1 16
382 4 16
233 15 15
91 0 9
438 2 25
272 4 18
33 8 17
176 5 20
32 15 28
240 15 8
44 15 6
380 0 14
430 7 15
418 15 15
45 3 12
309 10 15
385 7 12
441 11 18
420 3 7
286 8 16
160 13 21
70 8 24
219 15 23
448 0 27
433 9 15
423 0 22
169 2 18
45 9 5
395 12 9
156 0 24
172 14 10
329 10 26
413 13 9
25 2 4
472 3 15
27 2 3
230 3 8
403 3 26
256 7 5
45 5 3
300 0 21
451 13 16
122 9 8
149 12 9
490 6 20
256 14 12
443 10 27
22 12 9
489 8 26
389 4 4
294 13 2
182 14 23
418 11 0
450 6 13
233 4 10
418 1 21
232 1 24
287 5 1
346 16 23
478 0 18
136 9 12
234 4 23
99 8 9
417 3 6
380 10 24
278 6 27
155 12 26
90 3 0
396 9 4
258 13 14
457 9 18
435 7 3
390 3 6
271 9 9
476 3 12
307 14 6
106 1 27
112 5 20
175 10 6
229 0 4
120 13 1
195 11 25
344 13 27
92 11 6
140 2 10
22 10 11
105 6 26
413 15 27
406 7 23
396 15 6
494 8 23
427 12 3
430 6 16
201 15 8
156 9 25
383 5 10
416 7 5
192 11 21
326 9 1
63 2 17
337 15 21
362 6 26
384 16 14
145 14 25
287 13 4
90 3 8
387 4 24
180 12 23
305 8 25
380 9 5
131 14 26
51 13 9
50 10 20
147 1 15
398 0 16
445 4 15
294 7 10
112 11 7
182 6 27
438 11 1
323 16 28
0 7 2
302 5 11
487 11 22
497 2 27
377 5 14
454 12 26
180 12 7
294 8 10
45 14 19
347 0 10
273 7 9
338 10 13
92 15 5
228 2 20
138 5 21
489 8 13
272 9 28
204 14 6
384 9 2
248 14 22
54 8 27
396 11 14
24 9 23
308 15 14
262 11 3
105 12 15
211 8 14
229 10 22
397 5 2
251 13 4
164 4 23
356 16 11
331 5 10
29 10 21
46 14 1
187 15 12
184 12 23
303 13 0
175 2 14
49 14 7
341 1 6
403 7 8
82 13 18
63 0 25
174 12 28
128 3 9
40 2 8
497 14 18
161 2 19
346 12 23
324 11 17
229 11 16
232 5 1
250 9 8
96 16 9
178 2 0
281 0 0
433 1 17
399 9 21
178 12 14
405 2 16
49 8 17
424 0 2
388 15 10
91 13 14
5 4 17
276 3 28
486 3 15
142 9 14
203 5 16
149 8 10
469 15 18
310 13 3
497 10 6
395 5 26
62 4 21
187 13 12
166 8 21
141 7 9
322 12 13
73 4 17
303 9 11
195 0 7
173 13 23
112 2 19
169 15 7
129 11 7
207 6 22
173 15 25
171 11 11
56 0 25
257 9 15
16 15 27
256 1 15
215 1 2
309 5 19
463 12 26
131 16 8
142 6 27
11 13 9
378 2 1
354 0 21
296 15 24
103 15 4
409 12 13
453 5 19
152 10 16
267 4 24
64 8 11
371 16 19
396 14 24
485 14 2
304 0 21
136 8 6
478 9 14
139 9 19
494 16 1
322 0 6
401 10 19
195 4 1
134 7 23
428 4 19
268 16 15
464 10 1
462 2 1
498 5 15
198 4 3
17 13 11
105 14 21
377 0 15
395 1 24
13 13 16
115 15 1
149 5 13
225 9 17
257 8 10
322 14 21
416 11 1
335 10 23
493 13 5
85 14 5
215 0 28
424 11 28
11 2 3
126 4 27
476 7 1
446 3 3
319 7 1
278 1 14
77 2 20
103 14 11
204 0 3
86 0 2
134 11 4
161 11 6
180 7 10
326 13 7
345 9 9
201 14 20
417 1 2
153 10 27
283 8 18
78 15 0
374 11 21
182 3 1
175 14 11
460 13 3
496 14 19
459 5 19
349 15 25
464 10 28
437 7 27
384 4 22
117 6 26
8 15 4
435 8 16
286 8 24
24 0 6
160 10 13
37 4 9
469 9 13
494 10 1
340 9 26
49 7 3
177 2 11
38 0 16
400 0 10
169 4 27
42 4 16
315 9 1
212 15 16
422 14 20
216 5 10
461 1 12
20 3 5
111 4 23
7 8 21
219 0 0
438 1 12
139 15 13
457 11 9
39 8 18
97 5 6
180 10 9
448 11 20
442 6 24
94 2 27
299 1 22
9 3 26
50 11 15
471 8 7
252 5 20
170 9 9
330 10 9
131 0 12
308 16 1
282 13 21
211 12 18
187 1 13
78 2 10
397 11 16
370 11 28
385 2 20
454 16 14
384 15 18
93 3 5
343 5 18
373 10 14
120 2 27
257 4 14
9 2 10
268 1 26
180 11 4
89 2 24
334 15 21
185 10 22
113 11 0
499 11 16
294 8 5
153 16 13
498 8 13
397 5 8
17 4 21
52 1 25
88 5 21
37 2 11
408 12 25
312 8 25
3 0 13
42 5 5
267 6 26
437 0 9
28 6 10
415 8 23
39 13 6
442 6 6
221 3 6
430 1 22
454 8 1
440 3 3
154 10 12
467 16 25
439 12 12
218 5 4
216 5 26
427 12 1
312 14 18
297 9 24
67 4 12
42 9 0
382 0 23
56 6 23
428 4 19
476 13 11
227 7 17
162 6 8
31 16 8
262 8 24
20 4 24
154 9 10
169 4 6
244 7 0
421 16 28
158 11 21
425 8 19
303 3 9
155 14 14
323 0 27
268 11 14
294 8 16
51 14 16
227 13 19
342 6 5
216 6 24
408 12 24
86 3 4
383 16 19
297 5 22
206 0 27
247 5 5
351 15 5
273 8 13
297 1 2
72 9 10
455 2 13
270 8 5
317 4 25
436 7 28
407 13 20
349 10 1
228 5 19
183 5 6
333 3 0
347 1 25
469 2 0
36 11 17
428 8 23
333 7 20
380 14 2
41 0 4
43 11 14
78 16 11
121 4 21
282 7 21
19 16 4
71 14 27
7 3 15
224 16 24
224 1 22
267 4 16
233 11 20
145 10 19
356 10 3
335 11 13
143 16 10
276 14 1
210 10 19
331 9 14
296 15 6
363 13 17
228 0 21
334 8 5
206 14 10
4 7 1
277 13 3
201 5 17
272 9 6
249 6 1
230 8 17
247 3 8
23 1 20
48 9 20
39 4 7
244 14 19
441 12 19
284 10 16
121 12 13
291 10 12
246 6 3
242 3 0
8 9 0
221 16 0
146 8 26
486 0 8
326 1 18
319 10 20
186 5 8
249 13 4
300 14 25
282 15 22
457 7 17
65 3 13
105 15 9
451 1 4
45 14 17
483 2 9
9 3 6
480 10 0
229 6 25
359 1 11
376 0 16
234 16 24
58 6 9
305 12 25
228 4 15
325 0 8
74 0 24
46 0 2
187 5 7
334 14 11
45 9 25
9 5 9
231 6 12
369 2 21
240 9 13
146 16 2
355 4 21
263 4 9
358 12 18
80 13 11
309 14 17
317 1 26
385 15 14
296 15 16
253 11 10
129 6 18
247 7 25
242 6 11
263 16 8
175 7 0
277 2 1
308 13 2
259 2 19
426 13 5
125 3 3
281 15 9
57 5 27
425 3 18
376 12 6
14 14 22
356 3 22
350 10 17
240 4 25
152 3 8
116 0 12
236 12 9
346 5 7
387 10 10
389 14 28
146 1 17
254 3 12
366 8 25
297 5 1
198 4 10
455 2 25
443 5 13
488 10 25
491 3 1
231 16 7
161 8 15
1 12 16
97 8 12
393 12 25
423 7 19
129 7 16
403 0 17
25 13 13
450 9 2
449 11 27
217 11 20
489 7 5
267 6 23
369 15 8
185 1 18
80 0 24
54 5 13
113 0 19
169 13 11
336 10 3
352 1 15
228 13 15
395 15 2
134 6 27
212 10 3
303 13 10
259 8 28
329 14 3
25 6 13
226 0 28
357 5 18
328 14 17
378 8 25
410 9 22
381 14 4
95 6 12
414 11 24
83 1 11
190 10 14
224 14 26
297 0 17
306 10 22
446 8 26
345 11 17
15 6 1
70 16 6
381 5 24
229 12 5
357 11 3
397 5 6
338 10 16
122 11 24
64 4 2
19 14 2
383 3 19
420 13 14
230 14 27
339 7 13
405 7 9
458 12 0
196 2 11
485 4 24
240 9 10
283 11 13
290 0 13
404 11 22
479 9 2
436 13 20
373 2 14
71 11 27
255 12 18
354 15 7
314 15 19
4 15 16
425 9 5
166 11 22
102 0 25
403 16 2
177 3 9
265 3 2
462 15 14
371 0 14
230 13 15
153 1 4
434 14 20
265 2 27
426 11 13
201 5 23
41 0 19
397 6 4
111 6 8
83 4 25
241 2 22
387 9 22
352 10 27
257 2 1
49 4 7
124 11 26
163 0 3
13 1 19
274 3 18
396 6 16
14 5 28
208 15 12
498 13 16
396 4 7
39 3 1
462 11 14
6 9 13
414 8 10
3 13 28
180 9 9
25 3 21
163 9 3
153 15 28
417 15 21
253 5 6
317 4 0
287 9 23
227 10 18
273 0 27
442 6 28
420 8 11
234 15 13
78 2 23
153 5 0
96 3 25
323 2 8
67 14 1
437 4 22
29 13 5
457 11 7
475 16 10
211 13 4
326 8 23
245 11 19
359 7 24
314 1 16
244 11 14
33 14 28
336 13 14
250 3 20
487 16 11
378 14 13
462 6 24
129 10 5
236 16 15
443 9 6
194 2 16
380 6 20
174 10 9
415 16 1
62 15 24
418 16 11
447 9 18
230 15 28
258 5 7
106 15 2
74 14 13
469 12 25
13 2 16
437 9 9
489 10 7
441 6 8
218 9 28
21 2 6
498 15 19
88 7 8
409 9 15
63 10 3
63 14 0
466 3 25
334 12 10
160 10 23
454 9 0
181 8 21
446 12 22
352 1 28
428 0 26
297 13 7
315 7 25
10 3 3
240 0 28
344 5 7
52 11 22
245 8 18
379 16 16
180 10 0
466 2 18
171 11 12
80 4 21
97 16 2
314 0 12
444 15 23
277 8 7
176 8 19
124 13 25
182 2 24
280 14 8
23 5 26
174 0 28
427 13 8
94 4 19
140 9 9
377 13 1
495 7 13
420 6 28
322 16 4
408 4 7
139 4 7
498 8 25
87 13 10
56 4 10
113 15 24
84 4 27
258 3 20
395 8 16
321 1 23
471 15 4
479 0 21
17 5 27
374 0 17
107 15 14
22 2 0
156 0 2
5 14 23
449 9 5
414 11 3
201 5 18
402 15 19
367 12 21
2 15 9
182 12 0
166 5 10
1 4 27
221 13 25
471 11 7
208 4 15
100 3 7
450 14 8
37 7 0
27 9 28
37 13 3
455 2 1
238 6 12
449 4 1
248 9 17
64 14 1
250 10 13
17 9 22
49 6 28
314 1 18
362 1 27
344 6 7
340 5 8
476 11 12
481 2 27
394 5 8
379 4 0
444 14 10
337 12 28
241 3 27
403 11 11
138 7 14
472 12 23
16 12 10
20 12 27
164 9 18
258 6 7
352 13 27
403 12 15
125 14 15
279 6 18
276 13 14
454 11 11
88 14 22
68 10 16
129 7 15
223 5 20
335 2 3
284 5 2
183 8 7
9 14 3
161 13 23
82 14 0
309 1 4
161 15 14
102 3 21
489 0 8
110 6 14
262 1 22
95 7 3
304 6 19
111 5 12
472 3 22
212 14 19
91 2 24
191 3 6
459 8 6
214 7 0
12 5 28
82 12 21
434 11 6
325 15 26
340 12 17
376 15 14
479 1 14
208 3 27
133 6 12
113 4 18
442 8 5
306 7 26
173 15 12
147 6 25
318 10 4
283 13 18
393 5 4
102 11 2
147 0 4
458 6 3
139 15 7
381 7 28
113 14 14
233 5 0
257 5 22
273 15 16
108 3 22
164 12 5
93 1 4
378 13 19
194 14 25
406 14 28
140 2 1
155 11 28
491 10 18
439 0 6
180 13 6
41 2 27
163 2 4
76 0 27
405 0 24
217 14 7
286 10 9
377 16 21
100 15 25
210 4 28
12 13 5
234 13 1
143 11 0
155 9 26
71 1 4
16 1 13
147 8 27
159 2 20
269 8 4
267 11 18
233 11 9
343 5 9
288 1 14
104 3 19
39 13 1
246 5 6
172 15 14
61 3 26
179 14 17
430 6 25
69 1 21
272 6 27
21 5 23
212 2 5
377 3 5
496 6 1
237 12 21
103 1 27
79 8 16
112 7 1
254 15 6
152 2 23
200 15 22
356 6 12
313 6 25
2 3 18
399 6 3
163 4 8
486 4 8
125 7 24
386 5 25
142 0 15
152 3 19
285 5 5
434 12 9
302 2 26
499 10 7
435 5 8
410 8 6
292 12 19
304 14 16
367 10 18
359 11 8
43 4 4
339 12 12
58 11 24
312 13 12
306 13 15
366 8 5
291 4 22
92 7 21
240 5 13
336 6 19
228 11 11
58 8 3
280 16 17
16 1 19
278 0 7
295 2 12
199 1 25
390 1 3
184 8 0
439 9 19
342 6 4
318 9 4
419 3 10
414 6 26
192 0 26
50 15 26
67 1 1
496 0 19
0 8 16
318 13 12
27 1 18
247 14 22
382 2 24
371 0 6
473 12 26
479 11 20
387 4 19
412 1 12
147 2 11
40 4 23
152 10 25
50 1 22
172 5 17
334 10 23
428 14 24
498 16 27
222 10 26
116 9 8
338 12 5
346 8 3
470 13 1
226 16 19
393 2 0
416 4 9
412 13 13
42 15 4
375 16 26
278 3 15
235 12 17
89 14 0
374 10 8
160 11 9
73 9 6
313 1 16
338 9 13
110 12 0
79 12 21
211 12 23
157 1 16
376 3 24
391 1 1
84 3 4
405 0 8
112 13 13
193 4 4
347 1 1
8 4 24
139 6 28
172 8 23
418 14 18
210 12 27
103 9 28
342 0 7
363 3 27
356 16 14
15 10 26
285 6 23
76 6 7
113 12 9
276 0 0
13 0 22
416 13 25
394 16 2
400 13 0
271 13 27
334 11 20
371 5 11
308 1 18
222 5 26
160 2 18
74 14 12
144 5 25
95 15 15
331 15 7
219 14 1
243 6 3
475 8 16
485 6 13
19 5 23
451 2 15
68 2 5
448 1 2
356 10 14
165 0 5
385 3 3
288 5 18
334 2 27
66 13 20
410 14 7
220 9 19
333 12 21
144 0 18
450 12 6
276 7 14
327 6 18
242 15 27
486 9 9
281 0 27
354 4 15
473 11 24
478 3 11
298 4 1
133 13 7
484 11 6
182 16 8
332 9 28
479 1 15
173 11 14
182 12 5
206 12 7
249 1 11
79 4 5
453 1 13
150 6 4
233 16 25
296 1 3
413 9 15
259 8 24
469 1 19
404 11 18
12 9 7
124 9 2
128 16 28
492 15 2
70 1 15
39 3 15
232 8 28
22 15 4
186 11 0
320 7 28
77 7 17
372 14 5
147 11 14
417 10 27
372 5 4
46 8 18
426 1 7
83 12 12
232 5 14
140 13 19
451 9 7
41 0 4
274 5 19
299 2 0
470 16 28
164 11 1
212 12 27
17 10 3
465 9 20
352 3 21
440 12 26
246 1 25
164 5 23
381 15 14
252 2 1
436 7 13
377 4 1
142 16 5
454 16 21
209 2 11
441 0 22
315 2 2
242 15 28
30 9 5
257 1 24
132 16 6
364 5 1
364 11 2
454 13 28
28 7 27
191 14 21
389 12 5
398 4 20
88 16 11
461 16 4
24 10 23
365 4 9
325 0 21
78 14 4
105 16 8
306 1 4
468 0 13
466 8 27
191 12 17
295 11 14
32 11 3
125 9 6
100 8 6
348 4 27
97 9 6
128 4 26
404 4 27
422 5 9
322 4 12
467 0 22
230 1 5
62 1 10
375 5 22
224 1 27
355 0 17
242 13 18
54 4 4
233 8 11
173 11 28
116 13 13
17 13 19
464 9 24
296 10 28
484 11 1
163 4 0
28 7 19
99 3 21
428 1 22
324 11 6
307 16 25
223 15 7
182 6 14
63 4 14
330 3 25
117 1 6
438 11 5
482 6 25
180 11 27
343 3 23
401 9 16
94 1 25
282 3 21
12 10 13
41 9 10
400 14 17
104 3 20
316 2 10
120 11 25
493 2 27
398 14 20
254 14 10
172 0 4
68 9 6
227 12 5
290 9 16
276 12 23
403 5 11
177 12 12
291 14 13
51 16 21
459 5 6
259 5 25
207 1 10
456 16 15
402 11 10
116 10 19
126 3 20
80 16 18
449 8 26
322 9 23
393 5 18
252 7 14
79 10 1
131 0 11
174 11 4
403 13 11
281 14 18
197 13 4
431 9 22
269 4 0
124 7 14
391 0 4
400 9 27
112 8 7
52 16 25
483 15 2
317 3 8
290 1 10
466 1 3
51 1 28
233 0 8
119 4 16
232 0 17
159 0 28
391 3 16
97 4 27
427 4 23
393 2 12
275 14 9
182 5 28
217 14 17
57 16 24
54 3 20
451 16 3
420 16 13
374 3 26
272 7 10
80 3 13
413 15 23
233 3 4
264 6 9
220 1 26
170 16 6
81 15 13
388 4 26
456 10 4
349 9 26
253 8 26
318 9 13
177 5 16
467 4 8
91 2 19
237 9 27
305 13 3
323 5 18
383 16 7
407 5 19
440 14 19
458 14 2
238 9 6
219 6 2
128 13 19
78 14 21
176 1 25
459 13 25
75 0 16
457 2 5
284 9 6
120 11 28
234 8 22
10 13 3
482 5 11
263 15 16
359 0 1
300 2 23
1 15 13
2 5 19
203 6 28
410 5 1
350 11 13
367 16 2
192 3 6
220 10 20
153 8 14
369 10 2
7 11 16
231 13 17
344 7 18
268 1 18
167 11 4
262 13 23
391 8 6
123 15 12
280 16 2
392 13 17
260 11 6
375 7 20
303 7 28
223 1 7
48 3 26
290 13 24
250 11 26
107 8 16
254 5 17
257 15 10
420 10 10
127 12 6
346 1 8
35 6 3
329 13 20
257 2 20
374 9 28
171 3 22
188 5 12
229 13 27
4 16 3
455 3 6
351 5 11
278 4 19
498 0 2
371 3 16
317 2 12
50 12 22
254 16 26
157 14 3
476 8 8
91 11 1
179 11 16
200 12 10
415 4 18
448 11 10
267 2 8
110 10 20
243 0 24
60 3 5
397 15 13
461 3 16
490 13 15
212 14 18
479 4 7
286 0 14
283 6 3
481 10 18
213 3 5
71 3 22
121 6 4
197 9 10
329 8 28
78 11 22
187 6 12
102 13 4
336 14 13
496 0 18
277 4 6
480 15 3
397 16 28
0 9 12
30 10 9
177 0 12
92 13 3
465 9 21
293 5 26
56 15 28
456 11 11
169 12 4
52 1 22
43 5 0
298 16 16
470 5 7
8 2 19
59 4 17
424 11 23
65 16 13
494 10 26
244 16 6
45 8 6
40 7 28
49 1 15
21 6 2
224 4 5
80 2 1
94 12 24
166 9 10
390 6 19
305 14 8
285 11 19
153 0 6
51 13 5
340 10 26
233 5 28
221 4 15
446 9 15
336 4 7
421 11 6
166 8 9
45 5 25
310 2 19
243 10 8
54 5 1
383 15 14
263 13 17
263 11 16
118 0 23
370 8 19
186 16 1
366 10 15
278 1 9
339 3 21
183 7 26
132 2 24
294 15 27
201 7 15
59 2 7
377 8 4
249 0 17
232 5 12
344 12 0
433 4 16
119 2 19
112 9 18
370 8 15
354 7 24
367 7 23
478 9 25
108 6 0
383 4 1
96 3 13
376 8 6
137 9 19
110 10 7
407 2 10
118 9 22
201 13 26
398 14 16
285 13 8
171 5 22
473 15 19
281 5 8
386 12 9
351 1 22
240 5 23
130 5 9
304 9 18
186 7 17
372 16 14
67 3 3
454 14 4
471 0 14
41 9 12
163 12 9
368 13 10
140 0 17
293 15 20
136 9 12
327 4 2
214 1 20
213 14 23
367 0 0
354 15 4
208 0 14
11 3 12
172 8 28
241 10 1
7 1 24
30 5 21
406 14 16
399 9 10
343 6 5
257 12 4
94 7 7
440 2 2
125 12 25
80 7 12
406 4 10
34 14 16
17 13 15
134 5 20
422 9 27
202 14 10
256 1 18
205 1 10
269 16 26
341 16 15
360 9 14
320 10 4
299 16 0
384 4 22
470 8 1
213 15 28
159 0 20
147 2 27
211 10 15
51 13 4
175 14 28
11 1 6
94 16 3
376 7 17
132 3 1
247 13 15
67 12 6
378 6 20
142 8 12
385 6 1
497 8 0
210 6 7
422 15 11
162 2 25
448 1 8
216 9 21
427 7 1
235 0 16
275 7 12
32 14 21
397 12 22
420 3 15
160 2 1
168 5 1
42 13 20
391 8 24
348 14 9
303 3 17
151 4 26
375 9 3
472 6 25
131 14 24
93 7 3
494 14 27
461 4 1
249 12 9
271 15 2
61 7 18
190 14 11
182 1 27
233 11 17
233 5 3
90 14 18
265 3 11
246 15 27
63 14 15
147 2 14
250 10 12
291 2 6
115 12 5
256 9 14
97 4 17
44 16 2
434 5 2
92 7 1
64 16 27
39 14 13
273 15 18
244 5 13
313 10 9
333 13 12
137 14 22
489 6 22
387 4 14
123 7 18
289 9 10
231 4 26
43 13 22
372 11 9
16 14 21
219 16 13
25 15 24
156 15 9
68 5 21
317 0 17
16 3 17
44 1 18
305 5 6
195 15 13
123 16 10
454 2 19
226 6 15
463 3 12
360 9 6
58 6 15
158 13 4
372 12 17
241 9 22
439 14 0
22 0 5
337 13 23
202 6 12
299 11 4
222 8 21
176 14 2
210 9 27
193 4 1
313 16 17
63 11 28
33 16 28
334 10 28
235 16 6
330 16 8
268 3 22
174 1 3
44 9 25
380 1 6
365 0 6
85 4 3
152 11 13
88 9 8
481 12 3
79 3 22
269 9 2
204 9 20
163 12 26
141 1 9
310 5 28
381 16 27
441 0 24
369 2 0
203 1 25
101 2 4
66 0 27
242 15 1
119 15 18
362 3 14
251 16 27
455 8 7
303 2 24
157 11 16
377 9 3
409 5 25
285 0 18
358 6 1
283 2 14
28 10 4
386 15 0
268 3 10
347 11 9
238 3 4
66 5 12
236 3 18
227 10 2
56 7 10
269 3 4
322 2 23
231 11 5
343 11 10
57 5 1
164 11 18
413 10 26
434 14 25
451 2 22
294 0 23
131 7 11
458 11 5
10 12 23
287 0 10
416 0 2
287 1 13
320 4 7
253 11 22
117 9 15
199 16 10
178 13 25
306 5 0
448 5 6
434 14 17
388 0 2
263 3 5
132 8 15
476 14 17
200 5 5
462 3 27
24 12 18
4 0 14
68 6 7
200 16 4
171 2 19
68 6 1
8 6 3
428 1 7
414 6 0
213 0 24
471 13 8
467 2 13
257 15 0
345 0 18
272 3 12
108 0 19
371 3 27
295 3 4
240 12 28
128 12 23
178 14 18
157 3 12
373 8 3
340 9 22
148 1 13
85 15 9
416 1 19
433 14 12
19 0 5
372 0 10
406 13 14
5 2 12
290 0 27
265 10 20
331 4 23
260 6 3
475 10 4
71 13 9
219 13 6
47 1 22
209 12 20
264 3 0
38 7 13
458 16 8
436 16 21
403 1 19
479 11 11
395 15 6
39 3 24
312 4 6
264 2 8
100 0 21
365 1 2
91 3 16
271 12 20
288 8 0
278 0 5
152 8 3
405 1 20
137 16 7
443 4 5
101 10 12
228 15 25
16 10 25
202 13 4
410 16 19
42 6 6
465 1 0
15 7 16
459 3 24
190 1 17
57 2 5
70 16 25
119 15 8
497 3 25
395 14 27
294 7 0
231 0 15
399 10 9
131 12 12
101 8 4
395 1 24
410 6 9
23 4 17
368 13 15
156 12 27
223 10 11
145 3 19
239 14 20
281 4 15
360 12 22
20 2 6
471 8 4
438 8 25
408 10 17
61 6 24
196 1 6
237 4 15
6 7 1
315 3 3
47 14 26
189 3 21
367 7 25
160 5 24
280 8 22
288 7 11
264 13 14
193 3 13
89 10 1
32 14 17
496 1 21
214 9 12
496 1 1
330 8 14
18 6 11
293 9 13
261 5 27
363 15 6
21 12 1
68 7 26
440 3 21
96 9 28
358 6 27
19 13 11
302 6 8
263 8 25
383 16 23
120 6 16
463 7 0
268 13 19
346 3 21
349 5 18
211 14 12
71 1 20
142 5 23
219 8 6
125 13 2
257 11 27
326 12 26
59 1 12
211 16 18
110 15 8
428 8 22
457 10 3
421 11 16
129 15 2
249 7 19
345 5 6
499 15 7
71 9 20
405 1 25
379 8 1
300 15 12
195 8 20
44 2 21
360 4 9
269 15 13
55 11 18
283 14 7
88 12 1
455 16 10
254 3 26
9 14 23
147 6 23
29 3 13
267 10 2
352 12 15
263 0 0
402 9 24
490 6 9
238 4 5
487 11 22
185 6 4
369 4 3
50 14 11
86 6 0
329 4 21
30 11 20
82 16 14
152 8 22
419 8 20
492 14 5
58 3 12
64 6 19
242 13 7
156 16 21
136 13 6
56 16 26
336 3 6
394 14 12
436 3 17
272 10 26
380 5 26
171 6 8
259 11 22
325 9 21
404 12 14
289 16 22
279 3 11
486 0 3
415 6 16
426 2 21
128 3 26
262 13 27
167 0 21
318 2 20
412 5 10
241 5 11
433 12 11
499 10 25
319 10 2
225 3 1
243 16 16
190 10 3
112 15 9
274 12 14
201 15 3
31 11 28
421 14 1
411 15 17
102 0 19
464 0 20
365 14 4
395 6 15
204 15 5
223 8 6
183 0 4
41 10 15
125 13 3
1 16 5
150 9 28
245 1 17
476 0 0
481 3 6
193 2 5
455 7 24
446 7 3
64 12 21
258 0 4
475 1 7
204 5 7
225 13 13
79 2 21
117 3 24
75 16 7
80 0 15
140 11 19
322 12 13
116 4 9
349 16 5
254 9 8
18 4 8
297 3 18
48 3 24
286 10 2
93 7 28
150 8 20
339 16 12
187 12 15
490 10 5
361 13 3
119 15 12
137 1 5
61 10 23
404 5 13
48 10 20
200 7 18
429 4 23
445 7 17
318 4 26
29 16 1
258 8 5
368 16 1
129 9 16
304 11 24
417 8 25
401 16 10
428 16 28
163 4 19
185 6 21
437 15 15
117 0 25
65 11 17
257 14 6
285 1 14
33 5 13
113 3 8
416 9 28
201 9 20
175 7 0
497 10 13
408 0 22
166 13 11
212 8 2
360 12 5
118 9 6
28 2 16
496 3 26
486 0 12
335 16 19
219 4 6
391 0 2
361 2 1
473 8 18
413 3 6
353 6 20
257 7 18
255 7 26
91 4 18
354 11 18
147 16 24
8 2 20
119 2 24
316 14 11
352 15 2
298 10 7
62 3 10
406 6 4
454 6 11
329 6 2
96 2 14
115 15 10
159 13 16
68 13 5
476 15 27
197 2 11
380 11 11
266 10 16
182 7 7
171 9 9
461 12 4
112 0 18
454 5 17
196 3 4
83 7 28
414 4 17
80 0 6
270 3 18
17 13 14
300 14 18
397 1 26
326 0 6
3 9 1
94 5 25
127 1 18
406 2 28
181 9 13
103 3 15
258 7 27
256 6 17
112 12 25
211 14 10
333 13 4
268 10 4
41 8 11
284 1 9
109 15 1
346 11 2
207 10 12
18 15 21
209 6 0
395 16 9
101 13 0
491 14 11
473 9 0
247 2 4
224 13 10
293 14 26
371 0 11
477 0 15
489 7 22
259 0 19
454 6 6
166 6 2
86 2 8
416 10 1
432 2 24
322 6 19
192 10 24
419 3 23
135 2 16
273 6 17
86 16 25
353 1 22
166 12 20
469 0 13
330 5 16
407 9 2
266 6 27
280 6 15
294 13 9
52 7 25
460 16 16
466 11 3
457 7 19
488 13 5
228 0 12
162 1 2
3 16 16
235 13 1
47 9 26
298 4 24
394 4 24
379 7 16
279 15 19
47 9 2
199 7 27
106 9 5
16 13 19
477 13 8
93 13 27
283 3 5
87 13 6
250 7 28
71 9 10
463 3 25
109 12 1
282 14 20
33 14 21
329 5 7
32 14 3
473 2 19
41 12 6
208 11 8
294 8 4
161 7 20
146 8 10
411 0 15
305 5 10
158 5 3
337 14 19
277 9 4
122 4 25
285 9 10
275 4 3
445 2 26
275 5 16
493 14 20
88 9 16
465 4 12
364 8 22
260 7 16
164 8 28
24 8 7
142 5 16
79 9 20
455 2 2
161 9 27
433 0 28
496 3 15
479 1 15
480 11 16
375 9 5
251 6 1
292 9 18
493 14 13
78 3 9
232 15 28
358 6 22
356 10 15
425 2 1
54 3 13
340 2 14
374 12 4
373 10 8
214 13 6
495 12 28
282 8 4
223 1 9
381 4 1
446 15 1
453 7 6
474 13 3
35 0 28
254 14 18
255 8 1
460 16 24
257 14 21
324 0 15
482 10 28
165 10 5
126 3 0
316 2 19
329 9 23
143 11 25
290 15 20
338 13 8
76 13 5
185 8 2
406 10 17
353 6 3
210 10 19
438 12 8
272 1 12
318 9 19
390 3 17
331 9 0
89 2 25
237 2 24
255 4 21
292 8 15
438 2 19
410 11 14
198 9 1
347 7 4
144 2 25
283 12 6
383 4 1
336 4 0
379 7 5
458 13 26
374 0 18
93 16 6
414 9 13
12 4 21
385 1 16
70 2 3
118 3 9
413 6 5
290 15 9
498 14 21
390 10 1
460 7 5
145 13 28
329 8 17
333 4 11
273 12 18
108 13 23
287 9 23
142 0 2
6 1 5
265 10 1
28 11 25
242 7 23
63 3 8
490 9 22
494 1 20
407 1 13
240 10 12
101 14 6
194 2 17
145 6 6
332 13 9
201 8 10
261 3 15
329 0 18
356 16 14
195 16 15
271 12 25
117 3 4
197 12 18
133 5 1
408 11 1
364 14 20
80 2 5
125 15 24
216 4 2
363 1 23
405 4 14
223 11 22
289 13 9
329 2 27
125 8 11
256 1 13
365 9 6
226 9 8
433 6 3
283 3 9
436 9 26
117 16 19
187 12 15
392 5 27
94 13 23
354 14 2
117 4 13
239 15 5
471 14 15
68 11 15
458 0 18
345 1 6
245 0 11
16 4 1
318 13 4
266 13 19
310 12 4
487 1 19
183 14 27
404 12 3
349 2 15
86 0 5
106 12 4
342 0 4
143 15 4
333 7 26
239 7 28
207 9 8
118 14 15
171 7 11
493 10 25
198 12 25
198 12 11
47 9 11
254 16 9
28 7 2
227 12 12
407 15 3
179 9 27
180 6 28
283 3 11
50 13 13
247 5 25
462 14 5
373 8 26
399 7 11
345 15 16
16 11 22
112 9 17
395 13 0
310 10 20
22 11 5
111 10 9
329 7 4
466 11 10
490 3 11
414 3 20
66 3 20
312 1 12
140 7 22
483 5 28
211 9 4
162 12 21
15 1 25
315 10 3
444 8 7
141 0 3
70 16 27
419 15 0
308 13 19
79 15 1
128 16 5
14 1 8
426 2 4
472 0 28
209 1 26
418 7 26
202 1 4
295 13 26
372 0 1
227 16 7
198 3 14
72 1 9
311 4 22
18 7 15
23 11 11
267 8 14
102 11 17
421 7 9
163 14 13
129 0 5
112 6 2
42 3 22
332 15 0
305 16 6
183 15 25
329 4 13
33 3 21
121 4 20
369 8 8
126 7 18
161 10 8
74 8 25
102 1 1
240 13 7
70 7 16
205 6 19
291 14 23
27 15 27
209 5 25
130 13 15
489 8 12
75 14 15
483 4 22
151 12 2
389 13 4
219 12 24
196 3 20
490 10 24
31 2 16
246 2 5
488 3 17
296 15 24
223 8 11
257 15 10
369 15 4
231 0 28
312 7 19
291 13 3
16 12 5
34 11 12
63 10 9
438 14 1
172 10 13
115 8 8
37 3 13
294 6 4
84 15 1
335 16 21
450 13 9
231 13 23
59 8 21
256 8 1
183 6 3
86 0 0
317 14 10
299 13 23
166 7 28
495 16 16
481 9 25
309 7 8
42 5 22
225 3 13
132 4 24
238 10 25
110 5 25
475 7 8
13 11 4
194 2 1
176 8 8
258 6 9
70 0 20
293 16 4
82 11 20
79 0 19
148 16 24
351 16 25
278 13 0
268 5 25
296 16 7
72 8 28
468 14 21
442 15 8
241 13 12
27 1 8
437 10 11
197 9 25
240 6 15
337 16 26
339 5 11
261 15 19
111 1 25
94 5 20
314 3 14
452 5 3
410 5 7
202 3 25
448 12 15
423 12 6
303 12 9
394 14 18
216 10 25
296 5 16
350 12 7
380 11 5
141 16 16
404 3 14
0 15 4
123 0 0
87 12 1
10 13 1
260 3 5
449 16 5
166 4 10
454 13 14
96 11 8
240 3 13
397 13 25
352 8 16
269 4 11
157 15 6
396 7 1
64 10 22
422 4 19
410 8 14
439 12 17
282 8 1
365 15 7
252 0 10
454 16 11
215 8 0
131 0 14
477 5 8
34 0 26
478 0 22
486 6 18
347 15 13
248 12 13
402 13 8
238 10 5
470 9 25
140 13 17
127 6 7
259 11 4
317 7 5
403 14 12
446 14 14
316 2 3
138 14 25
374 2 8
4 16 28
399 8 27
224 14 4
111 11 26
84 8 4
349 10 10
18 2 28
426 3 20
325 9 1
268 14 15
276 8 26
382 13 13
344 6 19
239 2 2
34 0 22
397 7 26
386 14 7
87 0 15
318 8 9
198 0 12
194 11 8
474 6 23
125 11 10
26 1 9
484 8 1
299 8 23
346 4 23
79 12 4
478 5 18
446 13 12
409 9 7
341 9 17
113 4 9
100 15 27
69 12 16
51 13 15
134 6 18
432 11 3
374 9 5
196 15 4
448 14 22
114 4 6
481 5 3
25 2 18
188 12 7
224 3 2
100 16 4
236 4 22
109 5 21
235 12 8
485 0 21
76 13 26
35 0 14
422 7 28
16 2 3
249 11 20
202 14 20
116 2 2
30 0 25
132 5 20
495 5 9
381 12 5
187 4 15
436 8 28
146 10 9
320 3 1
296 3 26
70 8 24
159 5 23
309 16 4
128 13 28
85 5 28
279 2 23
126 7 19
394 6 18
216 10 22
7 12 0
30 13 1
156 9 20
147 11 13
245 2 10
492 3 8
112 13 2
255 14 25
311 5 14
398 1 19
268 14 18
225 16 24
163 16 16
170 6 9
181 7 8
38 10 4
323 10 4
368 9 2
51 7 25
462 2 22
81 7 28
482 9 19
78 11 3
309 5 8
238 11 22
222 16 22
128 16 25
341 2 25
201 0 17
253 1 16
362 14 0
327 15 22
442 8 11
456 16 2
130 12 1
390 6 6
397 14 15
395 15 17
33 11 9
398 1 20
42 7 15
319 11 1
198 12 2
287 4 17
5 13 21
149 3 3
430 8 27
315 14 17
170 0 23
5 6 6
24 16 22
386 4 15
401 3 21
488 4 3
161 1 17
203 11 19
82 3 12
14 4 11
415 2 6
130 0 8
357 7 13
172 0 28
53 0 27
268 5 10
22 15 26
152 6 28
393 14 0
386 11 12
178 4 4
457 2 3
152 6 26
456 1 6
381 7 14
203 7 7
323 7 13
181 5 13
122 16 7
467 15 13
232 5 19
17 12 0
130 1 4
244 13 12
77 0 26
337 5 2
96 7 12
214 3 12
357 6 10
471 16 9
35 0 5
129 6 14
226 5 4
27 15 11
146 1 20
284 7 7
456 5 2
489 7 8
153 10 5
119 2 0
262 10 19
225 9 21
210 3 15
169 16 19
443 4 23
171 5 20
114 14 26
170 11 16
351 12 14
65 12 20
168 9 1
264 16 17
359 4 13
239 4 10
177 1 5
386 15 28
125 9 9
110 6 10
168 13 7
13 15 16
51 15 24
125 6 1
73 8 4
114 16 17
494 6 14
26 15 28
225 1 11
218 11 4
378 8 2
479 6 8
127 4 3
208 16 2
499 6 13
157 12 28
119 9 9
498 1 24
451 7 14
73 4 26
158 8 26
443 14 9
187 4 20
14 6 7
56 7 28
409 3 5
405 15 5
113 16 17
169 6 1
83 8 24
27 11 7
165 1 15
121 15 24
217 16 9
199 15 2
463 0 0
308 6 0
115 10 9
347 4 27
32 1 17
11 5 16
331 8 18
448 8 18
265 6 27
118 2 17
125 15 17
314 12 0
98 7 5
43 5 16
387 2 0
291 11 0
479 4 0
65 8 10
344 4 26
433 12 9
16 4 21
454 13 20
494 11 3
284 16 24
313 10 16
346 14 1
342 10 14
88 1 6
122 14 1
473 9 4
131 7 6
325 2 16
74 16 26
481 10 6
382 16 10
107 14 24
365 14 14
175 1 3
203 13 1
116 6 13
416 6 26
184 7 22
425 13 18
358 16 5
128 10 17
125 10 19
256 7 13
149 6 24
498 7 20
19 5 18
299 3 25
384 10 11
472 10 14
290 10 25
341 12 20
230 8 9
50 9 3
332 7 15
19 1 1
61 16 0
270 11 11
245 11 18
39 5 20
25 6 9
335 0 25
467 11 20
265 9 16
292 16 12
258 11 18
150 4 24
145 14 4
150 9 6
36 8 19
263 2 24
15 11 23
230 10 5
491 14 17
16 8 15
2 0 7
280 13 0
28 15 1
336 13 25
333 3 21
30 8 22
199 10 18
248 5 28
495 15 14
297 10 19
74 6 28
132 13 3
322 16 3
141 14 19
58 2 12
468 1 0
200 7 0
465 12 26
414 1 14
274 4 6
217 1 21
118 4 16
360 1 19
124 7 13
190 0 25
141 7 20
271 6 23
179 4 5
154 6 8
474 12 13
93 4 25
377 3 9
498 13 9
10 14 2
254 12 18
466 16 22
76 9 4
58 15 27
426 12 24
271 16 10
231 2 14
361 11 23
175 1 26
137 7 14
309 1 26
469 13 16
102 9 3
180 15 14
352 2 6
381 4 10
265 12 22
44 5 28
292 4 23
492 10 28
233 14 26
43 12 16
101 2 18
498 13 18
305 14 20
137 5 10
453 1 24
79 14 20
8 12 7
374 1 20
93 5 11
236 0 4
151 12 12
491 5 21
255 13 25
351 4 9
299 9 17
59 4 9
49 9 25
116 4 23
181 1 18
117 12 13
394 11 8
131 5 7
181 14 19
427 2 18
206 12 6
80 11 7
134 10 5
50 5 27
144 11 24
18 9 4
353 15 12
111 12 16
367 4 0
452 9 22
361 7 24
225 14 0
373 8 25
480 15 25
470 13 22
183 7 19
113 1 28
424 11 21
484 11 27
127 10 20
204 3 20
484 16 27
374 12 2
71 4 1
175 8 7
78 3 18
462 3 20
228 14 1
338 6 18
161 5 16
237 9 13
265 16 10
453 4 21
438 4 20
54 2 20
199 16 20
31 1 26
498 12 9
111 5 0
292 12 24
201 9 2
53 14 26
201 12 14
414 4 26
228 16 6
55 6 7
381 9 20
486 13 16
362 2 15
110 13 0
306 3 1
221 16 11
353 6 14
230 5 20
124 2 3
23 15 16
62 10 15
82 7 11
422 10 23
6 13 10
255 10 25
36 3 19
377 14 2
253 11 0
259 7 9
402 4 7
348 11 20
30 2 13
311 3 4
424 13 12
310 1 3
306 9 19
46 9 3
172 0 25
127 16 2
58 10 0
184 3 13
131 2 7
303 12 13
474 10 7
119 8 6
403 1 14
459 15 3
254 14 1
238 11 7
57 10 7
435 13 8
388 8 23
391 14 27
286 2 2
9 15 11
372 5 18
112 0 17
177 14 26
373 10 10
463 9 9
265 15 10
490 6 2
127 8 0
216 5 2
444 11 25
489 3 8
168 11 26
129 10 5
69 2 22
1 10 11
480 11 23
394 16 12
256 9 19
477 8 20
465 12 21
346 10 25
140 12 3
480 15 11
75 3 28
340 16 18
494 10 28
127 3 26
108 12 25
400 15 19
67 6 2
164 12 22
206 0 0
128 3 8
226 0 26
454 9 27
159 4 9
471 0 13
92 16 2
289 3 23
294 11 27
61 2 2
492 5 10
76 7 12
319 8 6
497 13 11
166 6 1
50 5 10
138 11 26
40 2 9
313 12 13
310 3 18
260 11 10
309 6 28
157 7 3
88 6 9
74 7 26
225 6 19
359 13 23
299 3 26
358 6 23
46 13 24
224 11 23
14 14 16
39 7 2
462 14 26
266 6 14
179 1 19
335 16 3
363 8 25
336 11 13
458 13 16
37 4 7
2 9 17
118 15 1
268 16 3
308 1 19
405 13 7
457 9 7
152 2 17
20 7 16
0 13 3
75 2 4
289 9 9
243 2 12
75 11 15
379 11 25
47 6 12
166 13 17
288 10 12
171 9 27
126 13 4
312 16 23
75 2 27
220 8 9
453 2 16
69 12 1
441 9 3
253 7 19
111 10 8
164 7 6
232 10 15
68 14 13
225 3 1
336 4 4
112 16 11
86 2 12
340 2 12
97 4 15
104 11 16
289 4 0
459 3 28
84 8 25
158 6 8
114 10 13
22 3 10
134 9 4
368 7 26
492 9 27
243 5 12
349 6 8
42 5 20
371 9 19
358 2 9
13 3 6
492 12 13
142 12 7
419 12 25
400 3 7
17 8 21
58 0 6
454 14 8
74 2 5
178 15 19
337 2 19
388 16 11
459 6 8
93 16 25
263 14 1
264 5 4
59 13 21
101 3 0
238 7 7
444 14 10
326 1 28
282 2 13
351 8 25
59 4 16
319 15 1
417 8 24
158 12 19
137 7 13
410 4 17
131 11 1
2 4 8
437 4 25
418 11 3
59 12 24
302 12 12
167 13 18
172 6 28
24 10 22
406 8 19
357 15 8
155 0 25
311 3 0
169 15 20
316 6 10
463 5 21
281 10 4
117 14 15
206 14 27
484 12 0
165 10 6
104 3 10
398 10 18
282 10 25
24 5 13
62 11 8
398 6 28
345 11 21
460 15 13
16 12 8
256 11 6
428 4 17
332 15 15
206 5 8
5 2 2
397 4 9
298 16 10
240 15 1
278 12 28
65 1 14
180 13 9
371 12 27
415 5 9
163 14 8
247 4 17
66 6 24
449 9 3
195 11 3
146 3 26
217 15 18
29 14 3
73 4 21
321 13 20
415 15 24
436 5 20
27 16 16
415 13 6
373 7 9
481 10 1
424 3 4
242 12 7
181 15 22
202 10 0
267 3 23
57 15 27
229 4 4
395 13 24
236 15 9
487 15 5
222 2 18
149 1 2
300 12 1
83 8 17
381 2 20
167 2 18
18 15 19
110 15 27
6 5 9
296 2 12
289 15 11
288 6 13
234 15 4
290 10 23
445 11 0
350 3 21
424 4 21
491 14 13
175 6 28
374 6 21
261 13 2
196 6 9
435 5 9
16 2 5
245 3 27
143 10 14
82 12 7
349 11 21
417 10 14
137 3 28
132 12 7
163 9 11
238 7 2
498 13 3
134 16 22
218 5 0
213 11 3
99 13 21
303 2 12
33 1 25
445 9 3
438 9 14
171 8 1
444 0 23
440 12 26
243 4 25
129 6 16
292 14 20
112 2 8
316 6 26
378 9 0
198 12 8
55 2 7
375 11 21
416 11 16
44 6 14
276 8 15
319 12 27
317 7 10
383 10 26
220 1 26
458 2 0
199 0 1
119 6 28
9 1 17
364 13 8
364 15 23
449 8 3
499 11 25
142 5 10
265 3 6
155 14 18
314 7 2
23 16 3
53 9 1
481 10 17
210 2 26
334 16 0
71 15 27
447 7 19
186 13 2
485 5 28
329 8 14
70 3 5
436 6 4
296 15 13
72 5 9
94 11 27
320 6 28
41 10 3
206 13 1
469 6 6
186 4 6
277 8 5
464 2 8
409 10 21
479 11 19
107 4 23
327 1 5
25 2 15
218 1 9
170 16 17
318 4 24
124 5 25
22 2 24
274 2 16
438 5 21
398 10 2
20 1 5
207 11 17
129 1 10
370 0 22
80 11 2
394 3 17
259 11 8
54 2 26
437 16 18
184 16 25
274 1 8
443 9 17
398 1 18
190 12 10
270 1 18
48 1 27
467 13 6
211 0 17
368 10 8
341 16 12
321 1 3
406 12 25
400 5 0
77 2 2
205 7 11
5 12 21
35 3 10
95 10 17
453 13 26
480 11 17
117 14 26
329 0 4
446 7 24
202 7 24
76 10 19
375 6 24
454 8 15
255 14 22
436 15 2
99 11 3
441 15 4
205 2 20
52 8 11
375 6 25
7 14 19
216 3 11
320 10 27
194 1 2
317 5 22
71 9 1
266 2 0
483 12 21
433 7 5
261 12 21
495 15 5
119 5 20
144 10 16
414 12 9
158 10 0
233 1 7
469 16 18
3 13 15
172 16 25
40 3 10
167 2 1
351 5 20
100 11 14
34 16 23
195 4 0
105 2 14
172 6 18
34 10 16
183 10 19
476 2 25
104 9 19
183 12 20
123 7 2
141 15 15
457 7 7
116 0 7
89 8 26
364 11 2
426 8 6
162 13 3
440 0 8
492 1 19
67 8 20
48 4 15
72 3 25
108 13 6
89 11 6
208 16 19
408 3 3
275 7 6
472 10 11
430 11 26
464 1 2
385 1 25
302 4 4
175 9 9
416 3 13
299 5 23
314 12 16
73 14 4
252 1 25
55 5 17
291 1 13
167 4 9
197 9 18
56 6 19
69 10 6
153 16 21
240 1 19
292 0 3
32 12 8
460 9 1
194 9 10
239 15 27
110 3 12
143 5 21
375 1 27
244 2 14
397 1 19
200 13 0
84 14 10
296 4 0
176 7 18
30 7 18
218 4 8
227 11 25
197 11 18
387 13 1
457 15 4
12 12 20
249 16 14
312 14 27
84 15 25
446 3 11
138 6 6
135 11 11
157 9 28
124 13 3
335 0 2
279 5 11
328 11 4
251 5 5
182 14 10
218 2 22
273 15 14
464 5 24
153 6 5
67 14 21
293 15 1
425 6 16
314 5 4
395 15 25
288 14 4
140 9 20
231 0 6
4 12 27
413 9 2
499 16 25
213 6 19
13 10 13
384 1 16
240 0 7
403 7 0
229 2 3
471 0 13
100 0 0
333 8 19
402 11 26
407 11 17
76 3 22
222 9 11
98 11 22
12 1 17
336 16 7
386 1 5
36 2 15
481 5 5
447 14 19
269 15 23
365 15 1
418 10 26
199 10 1
236 9 22
487 0 7
288 1 4
448 6 20
374 15 7
150 2 0
135 0 0
15 10 28
196 15 18
158 12 27
491 14 20
300 16 14
243 15 17
187 14 0
53 0 27
413 5 12
231 0 21
292 3 9
328 12 22
215 2 27
488 13 7
350 1 1
52 16 9
332 9 26
70 15 9
269 11 12
351 1 7
289 2 20
68 0 0
465 5 7
191 13 28
57 6 24
223 7 22
180 11 14
328 1 22
433 9 25
132 8 8
397 10 16
69 10 16
285 7 26
401 15 21
181 7 23
297 8 20
328 8 15
272 10 22
429 2 3
325 16 7
224 1 27
347 6 15
137 3 12
277 9 19
414 1 16
176 5 5
406 15 1
311 1 19
225 9 16
74 12 0
34 10 11
139 1 24
413 15 10
197 5 13
177 14 6
407 7 3
439 12 2
499 5 17
183 11 11
129 3 10
379 7 18
319 16 9
310 6 28
3 6 14
16 2 5
0 5 20
202 7 5
48 9 6
280 13 13
33 2 27
83 14 0
131 6 25
320 14 3
364 7 8
275 10 14
88 9 5
116 0 1
122 11 4
270 12 7
253 4 2
191 5 12
150 5 4
201 4 8
331 2 12
60 6 26
346 13 25
197 2 25
211 4 27
229 2 7
452 4 27
215 13 2
388 8 28
138 4 26
39 10 23
82 0 9
328 4 14
108 5 5
79 1 3
95 2 5
217 0 1
435 6 10
111 5 13
159 12 14
167 7 25
432 9 22
127 13 18
54 10 2
73 16 3
335 11 8
450 3 17
79 11 21
443 4 1
106 3 12
466 6 10
402 9 27
136 9 23
293 11 22
241 15 24
99 8 6
100 4 14
254 8 0
136 15 18
1 15 3
280 14 17
135 15 2
186 7 19
43 8 6
35 5 10
159 9 27
138 5 5
497 9 21
3 15 13
389 12 10
125 9 20
49 5 11
481 10 25
236 9 28
144 10 5
328 5 4
18 12 2
155 9 22
71 1 12
104 16 6
49 13 7
38 10 7
105 15 28
23 16 27
494 14 3
495 4 9
149 5 26
344 2 16
424 0 14
290 1 9
265 8 22
275 0 13
454 14 0
362 14 5
442 5 6
153 0 1
216 11 0
460 6 9
89 4 24
297 4 19
332 10 28
60 11 17
237 9 27
31 0 23
473 2 4
355 12 1
90 13 26
460 0 3
187 12 15
229 14 12
188 9 26
246 5 4
338 13 9
251 12 11
61 15 1
212 10 25
68 12 22
367 13 26
375 5 16
273 2 5
381 13 5
56 14 11
221 16 17
280 2 11
37 0 22
385 7 17
278 3 9
8 2 19
66 5 11
498 5 25
262 5 20
147 4 21
357 13 14
187 4 7
147 9 11
261 0 25
393 11 13
356 6 18
301 14 27
320 0 22
321 6 20
282 7 20
292 10 25
41 10 14
182 16 0
206 14 2
244 12 8
372 2 3
248 4 18
434 2 0
263 7 9
112 6 18
25 2 11
216 0 22
48 16 17
263 6 18
134 6 10
339 9 10
454 12 6
333 12 21
381 6 17
456 13 1
397 0 4
453 5 17
457 6 5
327 11 14
93 15 7
281 6 27
345 3 5
250 3 16
280 15 16
287 12 7
135 0 20
108 13 18
161 2 17
158 5 27
52 4 5
58 1 9
478 11 4
163 14 1
152 12 21
39 7 0
197 10 16
468 9 14
258 3 17
381 5 5
454 10 14
482 15 8
324 15 28
427 16 27
19 9 18
488 1 14
59 16 20
211 4 26
150 1 6
382 13 21
236 8 16
360 5 14
354 10 20
17 16 12
282 9 8
497 7 1
192 12 10
247 11 2
325 12 13
74 5 20
367 0 21
397 15 23
22 8 21
156 9 26
2 3 23
6 7 23
124 12 16
346 14 10
98 4 19
331 3 17
335 12 21
107 15 18
313 13 2
203 1 25
164 5 21
425 0 9
313 3 21
467 11 22
98 2 26
336 0 12
91 6 17
355 6 16
27 11 14
484 13 12
246 15 22
273 7 27
11 14 9
499 13 12
366 12 0
94 6 7
58 5 20
113 15 26
265 15 12
193 7 0
265 8 20
48 6 10
466 0 1
77 6 17
234 1 26
340 14 15
429 0 28
75 10 24
363 13 12
394 7 13
160 0 14
197 2 8
188 1 16
179 13 2
462 1 3
393 7 3
99 1 16
100 7 6
204 13 23
55 10 10
390 9 5
219 16 16
125 9 17
241 6 7
188 13 11
104 4 11
296 0 14
228 7 2
483 6 0
232 3 23
4 6 8
112 2 4
59 4 2
473 10 27
437 14 12
312 11 9
279 14 23
323 2 0
190 1 22
456 1 7
301 3 22
188 0 5
197 6 1
246 11 23
404 5 6
105 0 7
383 7 27
26 8 20
265 15 27
467 12 21
388 7 27
419 8 9
108 2 4
405 14 2
387 9 3
493 1 6
322 9 6
107 8 26
141 4 26
60 11 7
222 3 23
7 12 13
18 0 10
353 12 12
281 9 2
368 4 22
396 11 7
402 13 26
283 7 20
423 10 7
420 0 6
114 9 2
457 2 16
381 2 18
289 11 5
138 0 2
300 2 5
188 4 10
282 8 19
256 8 8
398 14 16
95 1 5
453 9 25
146 10 16
194 11 4
201 10 8
465 6 8
483 12 24
274 16 0
246 8 5
221 14 18
7 14 27
375 0 9
85 7 11
35 1 5
250 1 21
412 7 26
364 2 19
235 9 12
299 15 4
495 6 10
83 5 23
199 10 17
69 15 18
492 6 2
309 14 26
464 5 17
168 15 4
339 4 27
485 11 14
154 4 8
107 4 8
405 16 26
339 12 15
127 9 5
187 2 1
385 11 13
88 12 11
333 16 2
51 6 8
256 3 19
206 12 18
23 11 6
495 13 19
18 10 17
181 4 21
67 16 20
266 7 17
31 12 24
289 4 7
263 11 18
211 12 19
392 11 25
69 8 4
144 5 28
227 13 12
421 2 5
255 8 9
415 6 6
142 14 15
459 2 20
123 2 7
282 13 7
236 15 24
293 9 15
248 13 14
50 16 2
258 13 17
148 14 14
366 14 20
3 8 8
418 14 25
331 16 17
116 1 0
197 7 10
455 8 7
204 12 16
82 9 1
418 11 9
1 8 3
323 7 9
166 8 23
203 7 6
104 9 0
178 7 18
466 11 25
411 11 13
375 11 0
106 3 11
446 1 15
499 9 3
371 12 28
77 2 14
299 4 21
239 14 13
431 0 19
169 12 5
68 4 16
275 7 16
326 16 28
174 6 3
157 13 15
27 10 22
187 12 0
415 11 23
52 16 10
56 7 1
329 16 0
462 12 25
147 9 12
181 6 26
185 2 3
71 9 22
210 8 16
190 3 7
202 3 20
282 1 11
182 9 13
198 15 3
183 15 6
264 13 20
54 16 12
238 2 17
174 5 23
86 5 6
281 6 15
386 4 7
116 8 1
244 14 16
238 4 0
272 14 9
120 8 25
379 7 13
401 9 4
494 5 8
344 10 9
273 0 24
34 3 26
80 7 13
65 5 18
299 14 3
301 3 16
236 16 23
181 11 1
161 0 21
337 2 10
276 12 14
486 3 0
360 5 5
442 0 15
237 6 26
204 12 26
462 13 22
198 14 3
316 2 5
380 9 17
355 6 16
405 7 24
376 10 12
345 7 2
330 0 14
394 12 26
422 0 19
126 14 21
410 11 0
360 6 26
34 2 16
260 12 15
25 5 27
27 0 5
409 2 25
120 13 5
196 16 20
44 1 15
254 4 22
486 10 26
80 14 25
152 2 24
424 12 12
196 7 5
295 1 12
292 1 19
305 16 23
374 16 4
119 7 23
440 1 1
83 2 17
322 5 11
230 1 2
81 2 7
148 7 6
305 5 9
339 9 26
367 10 28
22 2 20
87 2 2
137 14 17
116 13 4
316 12 8
186 5 13
140 7 23
443 4 0
351 10 27
458 10 3
113 14 21
444 8 0
195 0 1
229 15 13
417 0 23
461 1 13
13 2 6
330 11 9
198 10 24
101 2 13
213 0 20
12 9 3
6 11 15
290 5 25
51 7 20
345 12 15
32 10 4
286 16 28
430 1 9
318 0 2
286 13 23
184 13 23
282 6 6
4 0 4
158 2 9
71 6 7
47 7 1
258 5 3
439 11 21
137 1 12
375 13 10
51 2 8
485 15 9
139 7 6
308 14 8
172 13 0
363 11 11
263 11 12
335 16 22
142 16 13
403 5 13
55 11 15
313 1 12
319 1 3
245 12 10
201 13 16
399 15 18
299 16 25
61 2 27
69 16 19
241 0 27
337 12 9
288 15 6
65 1 21
328 3 18
137 11 5
298 14 19
447 16 15
475 13 13
493 8 19
95 14 18
412 0 23
116 0 3
378 13 27
225 8 9
337 10 23
130 3 18
210 15 18
209 12 11
250 6 20
98 6 18
147 1 14
473 1 19
162 5 14
498 4 24
380 1 18
309 9 5
72 0 9
467 1 21
43 2 17
93 10 15
49 16 15
389 4 18
448 15 16
62 4 9
427 4 24
197 0 6
2 14 7
106 11 12
288 10 12
383 12 1
292 8 11
134 7 0
13 5 19
372 9 12
428 1 20
221 9 11
318 8 27
487 9 19
371 0 25
351 4 23
313 12 27
421 14 3
113 7 6
198 13 6
249 0 0
197 15 20
161 12 7
25 7 16
249 3 17
261 2 15
444 9 7
379 10 19
416 8 7
469 0 14
371 5 28
428 2 8
383 3 28
342 8 23
375 0 11
361 8 20
457 11 9
99 11 8
440 14 20
430 4 25
134 7 26
106 0 16
195 8 17
338 15 1
432 3 12
496 1 12
315 8 2
281 7 18
36 4 20
340 11 4
71 14 9
93 13 2
466 16 21
379 16 20
13 4 21
68 5 15
21 12 5
450 16 20
375 11 23
148 8 4
428 12 3
367 4 0
456 3 14
307 15 12
241 7 22
131 8 28
287 0 12
66 7 27
136 7 19
484 6 19
101 12 5
211 12 25
412 6 20
443 14 6
183 14 0
419 0 18
97 8 13
61 0 12
335 14 3
98 4 27
199 6 6
303 10 14
307 13 9
401 11 18
280 5 10
53 8 14
167 9 0
467 11 23
122 10 2
369 15 5
220 14 18
105 9 11
416 11 24
258 13 5
189 15 15
221 15 4
1 12 17
344 14 0
29 8 4
452 0 28
329 12 24
443 0 15
325 6 16
57 12 5
430 9 10
176 1 2
403 12 22
282 5 10
305 15 23
376 7 17
358 15 15
0 15 26
279 7 14
173 5 14
365 7 22
89 2 16
481 11 16
266 3 21
241 7 0
102 5 18
235 6 15
14 3 4
367 11 13
431 11 22
280 14 20
103 7 12
188 6 6
295 8 25
364 10 18
175 12 28
149 7 6
476 13 24
362 5 9
417 1 6
44 10 18
399 12 19
215 0 16
258 6 5
373 1 2
221 13 4
115 12 20
425 4 10
442 16 15
286 7 22
445 14 10
227 12 7
46 6 27
355 6 27
178 12 2
105 16 27
232 8 28
204 12 23
483 13 3
47 8 26
215 12 13
286 8 12
491 12 12
157 13 17
202 10 10
253 1 4
222 12 22
234 4 14
453 10 4
322 14 28
377 5 18
386 9 3
73 4 11
18 10 17
242 16 8
309 1 19
122 12 14
9 4 26
158 13 27
479 6 15
278 8 28
358 0 24
64 13 9
157 14 17
411 14 3
118 11 1
300 7 17
195 5 21
20 2 5
358 15 21
440 4 17
295 2 28
169 10 4
303 10 11
89 3 10
461 7 1
115 2 9
424 1 17
164 9 20
44 15 28
6 4 12
400 6 6
339 16 4
372 13 10
110 16 0
48 16 0
429 5 18
110 2 28
182 10 28
393 6 7
135 14 24
99 8 12
193 7 9
219 13 15
197 8 20
66 15 0
278 10 11
29 10 17
96 14 25
201 15 15
372 11 3
496 4 12
120 8 1
246 4 4
143 3 11
95 3 13
185 1 8
345 13 16
442 12 5
236 14 26
474 8 26
42 0 16
127 4 10
347 14 16
35 12 13
434 7 7
234 2 20
475 11 10
139 4 4
109 1 19
96 13 27
98 9 19
318 2 6
136 4 23
142 16 19
473 16 9
101 4 17
475 3 19
221 2 25
462 2 16
138 6 19
327 16 21
432 3 8
406 13 12
485 14 24
55 7 8
57 5 17
248 5 7
461 13 16
429 2 9
333 9 17
219 13 23
131 0 16
79 6 1
398 16 4
26 0 13
68 6 1
169 10 26
410 16 27
136 4 21
184 10 13
417 3 16
415 7 3
326 14 13
47 13 11
229 2 25
217 9 24
327 11 22
227 2 24
316 2 15
75 4 11
18 6 9
316 9 22
315 0 24
231 10 15
225 0 24
444 15 16
40 0 17
341 13 11
329 11 8
169 8 27
122 13 2
68 15 26
5 7 4
310 9 19
420 11 26
155 6 27
26 16 19
365 11 13
214 14 13
482 10 6
220 12 24
316 7 18
308 5 18
196 12 18
254 3 22
236 7 6
306 10 8
139 2 4
88 3 14
223 5 2
436 6 5
430 10 23
26 11 14
340 0 27
446 0 2
181 11 18
442 16 12
347 15 1
182 16 13
432 11 25
377 13 24
131 16 25
121 12 27
63 11 2
328 3 26
381 5 27
245 14 11
493 1 21
165 15 7
170 12 5
247 0 27
180 16 7
266 10 28
237 7 24
223 0 2
5 16 2
36 4 16
366 11 1
84 15 6
265 14 19
166 11 6
431 13 19
98 10 27
136 3 22
41 12 1
241 12 28
43 4 22
77 16 19
399 2 14
493 6 14
128 14 9
275 1 16
411 16 2
239 14 4
414 0 15
364 15 20
22 9 1
408 11 27
146 16 11
265 5 11
486 8 18
52 15 24
483 6 11
116 12 25
166 16 25
91 11 19
262 7 9
416 8 9
304 8 19
490 8 21
70 4 4
84 3 2
71 6 21
390 8 21
475 12 24
299 14 26
344 9 10
372 15 21
465 8 6
97 15 21
287 10 25
125 7 7
188 14 1
321 0 8
424 6 27
456 6 6
276 9 24
152 1 2
25 16 18
154 13 26
132 4 16
81 11 21
257 7 14
396 10 0
175 10 23
283 9 1
163 5 1
469 11 25
195 6 28
9 12 20
165 1 20
230 14 21
59 12 5
216 1 21
415 8 26
332 8 6
158 13 16
283 13 20
443 4 1
402 14 1
111 15 16
303 11 4
152 15 0
431 9 28
336 14 15
31 15 10
387 12 5
314 7 27
273 0 12
239 15 2
374 0 24
72 14 26
123 16 5
311 9 11
476 14 27
408 10 6
118 14 2
60 13 26
353 12 12
408 6 14
452 3 23
375 4 27
202 16 2
280 4 26
136 5 22
416 9 15
414 6 20
187 11 22
151 15 16
212 14 14
71 6 1
325 0 20
418 14 27
137 6 9
387 3 28
44 12 19
210 7 27
373 15 11
249 12 13
418 12 22
258 3 5
71 7 5
209 3 26
315 1 22
455 11 9
80 14 28
364 2 9
117 12 4
144 7 3
206 11 19
181 14 16
388 5 24
128 1 25
110 9 3
477 16 2
403 0 20
174 13 24
71 4 3
381 5 3
77 15 25
370 7 28
464 6 16
192 10 20
453 5 18
365 5 15
427 14 25
241 0 9
44 5 12
112 11 20
323 7 12
431 10 6
441 11 17
374 10 17
227 2 18
272 16 4
230 7 0
378 15 19
273 16 26
372 15 10
369 1 11
125 3 21
364 3 22
445 12 19
335 4 15
483 11 11
318 7 21
27 7 25
433 1 0
336 0 21
201 15 21
234 8 7
323 16 20
147 12 17
179 9 0
490 16 18
419 9 19
467 10 10
382 15 14
313 7 8
455 4 23
10 5 8
365 0 27
336 10 21
127 3 26
55 11 13
416 12 6
405 0 27
357 1 0
56 9 19
31 16 15
175 0 3
333 0 16
471 8 20
59 5 21
295 16 11
123 11 10
440 6 21
113 8 19
366 13 9
275 1 10
74 10 10
459 11 6
492 5 8
438 10 7
228 7 0
252 13 28
382 11 23
175 16 22
279 6 11
93 0 1
52 2 18
245 13 13
33 15 15
491 1 21
340 10 2
290 3 18
20 12 3
485 4 10
53 13 22
435 16 24
65 6 14
254 8 3
175 10 28
496 16 10
132 14 23
201 12 5
232 13 3
68 4 13
87 3 17
115 12 6
483 15 7
402 6 20
129 1 27
129 0 4
275 1 14
133 11 6
273 4 11
337 6 8
8 5 13
494 15 22
396 12 19
35 9 14
260 5 18
331 12 12
476 7 12
198 6 0
297 4 5
314 2 7
281 0 9
409 2 5
261 15 5
394 0 12
398 8 26
100 13 21
2 1 16
167 12 13
97 5 19
81 16 0
109 13 18
432 5 5
175 12 21
452 15 28
346 12 6
359 2 13
30 14 8
131 13 19
305 1 6
312 11 4
355 1 20
345 16 24
234 11 7
471 15 19
451 0 1
67 13 0
91 8 8
73 5 27
297 11 2
496 7 11
36 16 24
155 1 22
137 11 8
298 1 12
177 0 22
365 2 11
461 1 14
484 8 13
11 3 28
475 2 14
394 5 0
372 6 4
130 1 14
423 9 6
119 5 7
260 2 2
397 12 19
262 0 21
97 3 15
15 2 16
405 13 25
76 6 8
463 14 17
445 16 8
155 14 2
19 13 11
117 3 12
429 11 24
49 16 1
275 3 15
119 15 26
398 3 25
365 15 17
338 0 21
175 12 20
394 2 13
51 12 9
168 4 2
73 7 15
79 2 4
284 13 16
368 6 6
91 9 10
133 3 19
349 7 18
195 2 12
0 13 8
184 6 26
58 3 24
296 9 28
436 7 10
465 8 8
499 8 26
220 4 20
498 13 13
64 2 8
91 1 8
372 7 25
104 7 18
245 2 13
491 6 28
188 9 0
229 2 15
427 7 24
66 1 26
459 7 3
275 16 19
74 12 7
232 10 15
323 1 21
469 1 26
316 9 18
129 3 28
117 12 8
292 5 9
301 6 23
176 0 22
346 10 0
61 13 10
374 13 9
224 5 23
216 16 6
446 9 25
298 11 27
115 9 28
236 16 5
276 1 7
388 1 8
89 0 11
85 0 3
164 7 12
19 13 10
126 15 22
10 15 11
77 0 20
115 1 2
400 2 28
182 12 13
101 5 23
345 8 15
174 6 8
43 7 7
296 9 8
384 4 18
82 13 6
309 11 14
143 2 10
201 14 28
368 9 0
420 1 11
210 8 2
490 10 15
269 15 13
349 1 1
313 9 17
463 12 7
380 8 19
310 14 8
27 4 22
359 13 20
422 9 10
32 0 2
87 2 16
142 3 7
12 5 18
380 5 1
279 14 11
498 3 22
103 11 25
245 13 25
111 5 2
348 7 16
429 11 15
238 0 10
117 11 1
229 5 18
405 5 20
357 0 17
328 16 28
37 4 19
36 4 4
406 1 7
19 12 8
200 3 4
43 9 15
90 8 14
11 6 16
44 3 16
24 10 20
323 8 9
396 14 14
177 15 23
91 13 12
409 15 23
200 0 20
385 11 0
62 14 11
386 5 14
113 8 23
125 13 13
388 15 14
453 5 25
48 11 1
356 0 7
153 2 8
11 8 14
408 4 6
57 8 5
86 15 28
490 10 8
70 3 15
398 2 16
142 14 17
238 9 18
223 0 0
178 13 6
371 11 18
407 8 5
305 12 6
254 13 26
377 7 26
353 3 12
440 9 16
301 11 22
322 0 5
232 8 8
372 14 14
403 7 17
37 3 12
60 14 19
21 9 11
48 0 2
444 14 17
184 12 17
446 14 18
277 15 7
104 8 19
163 8 25
58 5 17
329 16 18
340 11 4
258 11 12
132 9 12
254 12 13
499 11 5
295 15 20
222 8 15
108 0 3
56 7 3
336 1 4
247 5 14
442 11 26
374 6 5
172 5 13
132 3 23
447 13 17
69 1 15
335 13 17
9 14 15
233 7 3
52 12 20
380 4 18
112 2 19
329 3 0
437 4 21
385 2 17
128 1 4
149 2 20
139 7 23
188 9 15
372 2 17
264 9 6
108 4 14
32 7 21
315 2 27
460 5 8
273 7 13
404 0 28
82 14 7
180 4 17
378 12 5
484 16 2
182 10 21
88 4 25
47 15 13
248 3 1
358 13 23
89 11 8
10 12 21
375 15 21
57 9 10
296 9 25
74 2 21
267 7 22
156 3 14
39 11 27
11 11 7
72 6 1
207 11 15
145 16 14
219 12 27
276 4 6
69 15 12
342 11 2
59 7 18
4 9 2
460 9 11
252 13 4
481 6 15
333 4 6
29 8 25
93 3 25
93 4 26
29 9 1
239 2 22
307 4 21
33 7 23
242 1 16
418 7 25
459 4 19
53 4 9
329 5 23
1 0 12
394 6 6
418 12 20
90 11 21
89 2 24
254 12 1
284 8 11
334 14 15
82 13 1
70 2 4
404 1 13
314 1 13
281 2 26
298 6 8
87 4 17
186 11 8
445 11 28
249 0 6
489 7 1
300 7 14
455 9 7
53 8 14
433 7 4
220 16 20
339 3 26
345 13 1
68 10 9
14 2 5
27 8 27
45 1 14
331 2 6
493 10 26
366 8 7
213 7 20
255 6 8
162 12 13
8 1 28
59 15 22
352 12 4
329 13 6
444 6 13
362 10 22
359 4 21
381 7 16
54 6 19
124 1 20
313 2 20
408 12 4
189 14 24
454 11 26
19 14 6
464 11 2
418 11 12
275 15 12
107 9 18
373 15 5
193 16 24
80 4 0
493 14 6
118 10 24
314 4 19
97 4 9
202 16 17
483 8 3
214 14 6
322 16 1
105 6 21
242 13 3
179 13 6
49 13 2
288 5 12
285 2 23
273 7 26
91 13 4
348 0 8
254 11 16
349 6 27
73 0 4
85 9 15
323 15 16
150 12 5
252 3 20
142 7 25
433 12 15
137 3 19
480 5 0
300 9 25
378 0 6
297 10 21
26 8 14
247 11 21
301 8 6
320 5 13
118 7 20
252 14 2
239 1 16
147 2 18
173 4 1
340 9 26
34 10 4
27 11 8
323 16 7
140 12 27
1 8 12
335 13 4
461 4 20
237 2 18
405 3 8
40 0 21
154 16 11
477 8 1
405 10 11
325 7 0
411 15 6
280 11 12
257 12 19
497 1 12
398 11 0
176 2 6
194 7 28
441 1 7
326 8 0
373 11 7
8 15 22
3 6 11
371 14 0
295 15 14
16 7 10
307 16 25
99 2 19
184 5 8
186 3 8
145 12 26
491 2 28
434 7 4
346 2 23
189 0 5
308 1 15
495 8 12
0 4 9
416 5 21
133 1 28
290 0 17
444 5 15
249 7 12
81 15 9
208 4 24
434 4 17
46 15 12
267 15 16
373 14 25
349 1 4
201 6 14
258 10 19
13 6 6
379 15 21
232 4 7
379 5 16
370 13 1
393 1 19
373 4 4
318 8 0
212 8 24
295 2 13
287 12 5
169 3 8
171 10 13
258 2 5
180 13 19
100 8 8
189 13 11
402 2 1
180 7 8
35 4 11
51 9 22
55 13 26
497 10 11
296 3 24
52 12 19
405 7 20
496 15 13
331 2 3
5 16 24
443 9 28
442 2 27
233 11 6
414 7 3
248 7 3
294 16 14
418 6 15
241 4 8
269 10 18
65 4 21
430 14 10
351 8 5
398 9 27
374 15 7
481 14 20
331 1 0
248 3 6
444 9 16
441 2 10
493 16 9
168 0 16
448 9 14
142 0 0
15 12 15
171 16 11
183 4 23
473 9 26
289 15 0
59 11 16
224 1 19
346 8 19
165 9 28
146 4 4
319 1 18
295 12 3
422 5 15
145 7 18
386 9 10
26 14 0
402 5 2
361 13 13
142 12 21
418 13 1
379 4 13
482 14 7
488 4 18
60 3 1
368 10 24
395 13 6
406 12 11
64 1 20
177 14 3
50 1 23
252 4 5
496 6 4
162 9 4
46 1 27
459 16 18
409 9 20
250 3 18
227 15 2
271 14 9
70 4 14
422 7 27
197 2 28
277 14 28
118 1 11
486 12 4
296 12 23
122 6 19
497 7 26
71 4 17
209 11 10
401 13 8
146 8 17
426 3 13
477 15 4
378 6 25
45 2 17
214 9 22
350 15 26
278 9 0
337 9 27
116 4 20
497 5 10
36 1 22
394 15 26
199 2 5
254 8 15
18 14 19
289 12 16
113 9 22
189 10 13
341 7 25
275 11 7
320 2 6
407 0 6
49 14 26
13 8 22
154 3 20
122 4 27
28 11 3
383 3 3
193 11 11
171 7 13
178 15 14
364 1 21
474 3 13
258 3 19
455 8 25
84 15 28
278 2 14
333 8 17
63 2 23
260 3 10
286 2 3
152 16 19
159 11 16
392 13 10
59 16 18
188 11 2
91 4 21
175 3 0
413 8 9
168 11 1
304 11 1
235 3 2
380 0 5
157 3 4
155 6 22
420 1 15
79 8 28
238 11 2
45 1 26
493 14 11
441 8 8
428 8 1
348 15 10
203 9 7
356 14 11
148 8 4
295 8 19
333 9 5
445 7 12
135 1 1
53 9 18
467 16 24
264 5 13
354 15 26
394 16 10
304 14 12
403 14 21
65 8 18
448 1 17
16 4 18
32 14 21
332 5 17
191 16 20
235 4 11
102 3 27
398 15 15
409 12 11
415 1 20
14 3 27
456 13 0
29 5 2
397 13 9
213 12 13
480 8 11
327 2 24
175 9 1
256 16 21
412 2 3
138 15 12
455 6 20
74 0 28
117 14 17
329 11 22
223 2 27
229 13 28
137 1 1
428 14 24
202 6 27
118 10 1
418 15 3
397 8 28
142 11 7
207 3 28
295 5 1
199 7 27
68 7 3
459 8 14
151 16 21
408 0 27
204 4 25
313 16 15
283 5 11
248 1 11
418 14 13
134 13 11
145 5 19
69 4 27
180 14 7
211 1 15
262 14 12
387 15 19
121 13 8
6 9 6
211 13 0
259 7 27
427 5 24
460 6 25
230 9 23
362 10 7
414 4 19
317 11 16
103 1 18
288 2 13
266 5 21
23 8 20
118 16 17
190 13 1
34 6 13
403 10 19
8 14 16
44 4 7
128 11 9
432 8 22
420 14 14
386 7 4
140 7 6
55 4 27
65 15 6
65 5 14
495 11 3
108 4 12
355 13 4
110 5 28
11 1 4
53 3 5
418 8 19
4 8 10
111 7 11
341 2 15
57 1 19
213 6 18
29 0 4
340 8 12
295 6 3
7 0 21
484 11 3
420 4 2
304 15 21
189 6 15
441 11 3
361 15 2
130 15 11
494 5 11
160 10 27
429 8 25
265 0 14
40 6 15
405 11 27
55 2 8
201 8 8
348 12 9
283 7 28
187 16 19
293 11 21
40 9 8
311 14 26
8 1 18
310 5 12
10 6 17
439 14 1
353 16 9
240 8 24
408 11 20
391 13 27
254 14 8
492 6 20
480 8 9
276 4 18
188 8 24
303 3 6
384 5 2
105 4 2
238 10 5
250 0 1
225 1 0
405 13 6
463 12 0
410 6 6
221 4 10
311 1 22
439 10 25
333 10 5
488 5 8
90 1 9
38 4 0
124 9 21
73 11 16
215 10 14
138 15 6
30 6 19
15 12 24
209 0 25
84 13 23
92 10 11
291 0 24
102 2 12
350 13 1
7 15 10
174 6 22
2 4 18
468 13 9
12 8 2
129 3 18
348 15 22
416 10 9
171 15 26
494 2 5
103 3 12
296 14 13
144 7 9
355 6 3
216 15 22
238 0 15
64 13 7
96 5 2
344 10 25
104 11 24
342 0 2
268 7 3
427 1 10
186 5 11
291 5 7
44 13 16
349 0 20
218 12 15
124 2 1
119 2 6
25 6 24
150 12 25
479 16 7
93 13 16
408 12 14
253 3 13
270 13 16
440 4 7
3 8 1
250 9 17
265 13 25
346 2 13
124 4 9
288 10 16
448 9 7
281 4 0
233 15 0
210 2 12
314 15 24
320 6 11
355 12 10
180 4 2
384 0 27
350 3 10
157 15 5
375 10 13
376 11 16
412 16 23
424 16 25
44 11 4
43 12 10
65 13 18
276 4 12
399 1 11
365 11 12
279 5 2
119 9 27
389 3 20
363 10 7
499 9 8
409 3 2
76 0 28
475 14 10
116 9 21
473 8 10
405 14 24
3 4 4
252 9 0
235 8 8
338 14 28
325 1 6
349 8 27
317 16 21
410 10 9
134 1 22
208 16 0
122 15 5
400 14 15
137 10 16
225 5 0
128 9 12
452 12 12
250 1 19
212 1 17
233 3 6
69 14 12
440 8 0
316 15 21
148 9 18
72 0 4
23 14 27
152 10 6
412 16 14
204 2 5
315 14 9
428 12 15
286 0 19
212 5 23
182 15 28
436 1 21
352 8 11
335 8 1
161 7 24
409 0 7
306 12 2
291 14 18
420 1 5
392 7 26
49 0 25
437 16 16
499 15 18
373 16 2
290 9 1
434 14 4
340 13 1
62 16 10
30 2 4
361 1 7
303 0 2
326 15 24
385 2 15
349 3 12
427 15 20
407 10 23
367 1 8
421 0 26
369 2 3
194 15 20
334 2 0
375 12 0
54 13 12
415 14 14
473 8 28
138 9 20
203 8 1
267 13 27
283 5 18
173 9 19
18 6 7
121 14 3
171 2 5
135 9 8
455 3 22
41 13 10
372 6 0
81 3 6
106 5 8
28 15 24
58 10 2
200 3 10
372 0 24
468 1 20
108 14 18
120 14 23
196 11 26
438 8 27
138 12 23
492 5 15
290 16 23
116 3 15
20 8 20
164 0 4
384 1 0
183 14 9
242 8 16
410 12 13
155 15 6
228 15 14
88 10 20
256 15 21
147 14 2
273 2 26
229 5 13
122 0 9
70 13 12
199 11 20
467 7 8
89 12 17
35 4 1
437 2 20
467 13 21
238 14 19
384 8 11
443 8 15
474 13 4
137 9 0
397 6 4
82 11 21
94 4 24
155 9 9
304 3 22
184 12 25
378 0 23
449 16 0
130 3 25
152 5 28
65 3 16
43 2 2
39 9 23
137 1 11
448 10 23
91 7 19
471 11 8
394 14 21
474 12 11
0 9 3
478 9 16
107 6 9
302 12 14
252 10 10
310 16 19
31 4 6
165 6 23
355 15 9
399 12 28
490 11 16
26 0 10
1 9 14
43 13 8
342 5 15
113 1 16
128 2 11
205 6 0
179 5 28
77 0 0
201 6 11
449 2 3
145 10 25
101 15 10
154 0 19
200 6 6
376 2 1
469 0 16
82 7 26
100 11 15
193 4 10
162 9 3
351 0 26
385 3 19
315 7 28
237 6 24
470 14 17
308 16 9
466 16 14
317 10 21
155 9 26
294 0 20
387 8 26
186 6 21
167 8 4
92 2 14
382 4 24
83 11 15
105 0 19
358 13 2
169 14 13
418 4 16
493 2 7
191 2 14
399 4 5
271 5 3
87 15 18
301 13 26
368 7 23
142 5 23
484 7 11
91 16 25
41 2 16
58 0 3
231 2 23
65 1 22
161 7 24
264 0 6
241 11 15
102 7 25
312 1 7
346 5 27
472 5 6
269 2 23
449 6 19
262 10 24
441 9 16
447 0 5
32 14 12
396 9 18
256 1 24
198 7 28
12 0 15
335 9 13
1 2 16
401 3 14
67 15 21
251 16 28
411 12 23
326 3 9
75 13 1
340 14 10
403 13 21
444 4 18
476 0 13
435 8 8
173 5 19
364 6 12
273 12 15
9 9 3
165 2 13
460 14 0
53 9 27
433 0 21
363 13 14
343 12 14
35 14 25
444 4 14
479 7 24
456 10 28
286 3 6
454 7 7
226 14 16
232 0 6
356 6 23
395 4 8
1 4 11
320 8 13
215 6 2
477 11 25
425 8 7
81 4 27
497 5 0
321 14 10
298 1 2
105 9 8
198 1 10
74 7 26
187 15 9
197 13 17
68 10 2
231 1 21
445 7 20
347 6 4
86 9 20
17 10 9
114 0 5
355 16 0
37 1 17
304 10 14
291 5 19
414 8 24
302 16 9
167 0 3
140 13 6
34 14 24
137 7 8
297 16 6
372 6 25
386 14 12
322 8 13
140 1 21
150 9 11
189 15 7
173 8 26
222 5 28
477 9 4
465 7 22
72 0 22
262 6 18
259 13 7
52 13 26
250 5 2
318 3 23
384 12 20
421 5 15
225 3 11
294 14 22
236 3 5
467 16 17
392 9 21
298 15 26
238 16 9
58 9 28
401 9 3
451 2 9
96 15 0
252 1 12
79 10 15
373 11 4
91 6 8
229 4 7
282 6 23
192 5 10
339 10 0
96 1 23
183 4 27
65 2 16
103 0 8
362 14 1
127 4 9
296 13 15
353 12 26
484 10 12
315 14 14
297 13 23
388 2 1
36 12 1
194 16 17
220 12 1
469 16 18
158 2 15
71 0 5
264 1 25
30 10 18
74 7 25
70 14 4
233 10 10
171 3 1
102 7 2
197 1 13
89 10 17
241 5 25
176 11 16
405 4 24
341 1 9
466 9 4
67 3 1
145 15 8
255 14 17
187 10 10
77 5 16
56 15 27
481 8 1
408 5 13
120 2 20
46 3 22
322 16 24
465 15 6
243 13 14
135 6 15
6 2 28
277 15 1
228 4 1
88 14 25
423 16 20
232 16 1
92 15 7
458 10 4
445 6 5
418 3 4
371 7 11
294 2 14
43 7 20
5 1 2
250 15 18
411 8 26
53 11 8
236 7 6
189 12 16
214 1 28
80 1 19
95 3 23
337 11 26
216 11 22
127 1 1
339 13 1
158 16 25
16 4 23
184 6 16
221 4 0
285 10 11
101 1 5
121 5 11
350 3 6
299 0 15
493 9 16
378 5 23
259 7 15
185 7 2
379 16 1
28 8 0
367 7 3
416 6 12
463 11 15
465 0 7
166 10 9
168 13 19
438 8 1
52 15 18
78 13 0
366 4 25
87 16 2
210 2 16
42 0 21
316 4 26
128 13 1
56 8 21
40 2 14
364 5 16
88 11 26
304 12 11
367 5 2
104 2 26
60 15 5
295 3 25
109 2 8
311 9 6
377 4 2
117 9 23
378 11 21
376 14 20
312 15 1
430 1 15
22 0 13
164 16 24
84 13 25
220 11 20
110 16 4
344 16 16
36 15 0
319 4 21
148 4 14
326 13 17
498 16 17
197 2 5
96 15 20
131 16 23
477 4 8
93 9 21
380 4 15
76 5 25
411 3 25
238 4 8
216 8 8
335 7 4
396 13 28
13 4 28
196 3 23
27 0 12
369 6 2
8 0 12
206 1 22
128 5 16
399 16 13
108 6 25
367 16 15
114 0 23
329 2 8
302 16 2
325 1 5
385 4 27
169 10 9
95 13 22
329 13 4
115 5 8
223 16 14
478 1 17
175 1 27
346 16 28
112 13 7
74 5 2
204 12 19
203 11 13
427 4 28
174 8 26
179 15 16
309 6 25
405 13 16
17 9 3
483 5 14
29 16 16
139 12 7
305 15 14
213 6 10
354 12 15
445 5 25
26 9 12
361 15 16
334 11 27
157 10 0
342 13 3
400 16 4
95 4 7
215 6 3
376 16 27
231 10 19
101 3 15
73 4 18
371 13 26
51 8 6
468 0 2
47 9 23
343 12 4
336 15 8
223 11 15
364 5 27
431 3 15
272 14 24
52 14 18
297 3 22
311 12 17
68 9 16
217 15 27
392 7 7
142 1 0
222 0 25
409 3 17
422 14 2
155 0 2
439 6 16
462 0 13
316 11 20
102 7 4
25 11 22
472 11 19
467 5 8
418 2 4
190 3 3
470 15 28
401 7 25
78 15 15
345 7 26
453 4 2
458 8 2
250 0 22
73 14 17
184 8 21
239 10 26
464 10 2
111 11 6
285 12 23
196 5 0
151 0 18
276 5 12
315 13 27
377 2 19
37 7 5
404 14 5
95 6 5
463 15 28
477 2 1
13 10 11
208 12 28
345 15 15
477 7 5
492 3 26
212 16 5
133 10 12
233 16 11
268 5 24
230 3 6
98 9 1
182 14 26
30 13 27
199 5 5
188 1 10
154 6 3
191 7 18
205 16 7
362 8 13
359 2 3
414 10 25
425 13 12
142 12 15
56 3 10
156 2 26
366 10 28
378 14 0
390 9 6
284 2 22
159 5 23
367 12 22
477 8 28
472 10 22
349 5 23
69 12 1
493 11 24
194 12 15
203 11 13
331 10 22
93 13 11
254 16 16
209 15 27
95 16 26
152 16 17
433 14 23
51 4 25
241 9 6
422 1 21
442 6 5
476 10 25
327 15 19
334 11 24
0 0 27
85 13 10
86 0 6
301 10 20
486 0 3
233 11 11
222 14 23
486 15 17
238 14 20
293 10 9
96 16 24
152 10 25
182 3 5
236 13 16
105 6 8
312 8 12
128 3 18
30 5 1
98 12 10
27 8 25
165 7 9
56 2 23
360 11 4
337 6 10
230 10 18
299 10 26
288 13 10
427 8 17
55 1 28
255 9 21
19 14 1
242 5 2
290 3 23
72 6 7
397 0 17
417 4 15
271 1 13
98 7 19
270 0 12
490 13 24
495 5 16
135 4 27
277 0 22
5 2 5
485 14 27
288 16 16
358 16 23
227 5 23
390 13 8
474 5 5
382 11 24
320 10 11
241 5 13
238 4 13
402 11 14
470 0 3
450 7 1
178 6 7
161 1 20
52 0 3
236 11 15
374 14 18
115 4 17
67 9 10
307 9 22
388 5 13
354 11 0
195 10 20
241 13 22
467 8 6
427 7 9
452 6 20
132 9 16
268 11 27
201 16 8
47 14 19
197 15 8
496 8 15
21 11 13
164 1 16
177 10 19
9 0 25
46 2 18
17 4 12
453 5 20
46 12 17
268 12 14
166 11 25
472 4 9
368 16 6
358 11 11
188 4 28
164 1 4
233 1 23
76 14 21
427 2 22
174 7 10
232 1 5
153 0 12
183 14 22
353 13 4
162 13 14
134 11 24
303 8 0
81 16 15
219 13 2
321 8 12
297 8 15
116 8 5
419 8 20
77 7 21
182 0 26
291 12 0
307 12 26
366 0 24
419 16 8
495 10 0
87 5 28
46 12 23
423 16 23
28 9 8
495 3 9
41 4 22
231 14 10
0 1 28
301 9 1
155 5 8
73 5 2
118 3 0
497 5 8
402 4 16
187 9 9
290 1 0
329 6 28
372 11 7
359 0 21
124 7 23
462 0 6
258 14 11
281 0 11
12 6 13
189 15 26
299 0 12
472 12 18
131 5 19
233 13 24
34 6 6
88 0 7
290 9 23
292 15 8
359 1 25
123 5 6
201 3 10
130 8 11
36 4 10
87 5 22
377 2 2
119 5 18
394 1 18
386 6 20
466 3 12
271 8 13
124 13 23
271 1 24
464 14 3
431 8 4
162 12 23
317 8 1
394 8 9
415 1 16
293 0 14
35 7 4
133 3 22
6 6 12
248 4 24
359 15 7
202 8 28
348 7 0
155 5 9
340 3 13
485 11 21
410 10 7
374 10 6
31 16 16
425 12 13
290 11 14
332 10 25
170 9 3
408 7 5
300 1 11
124 12 16
383 4 19
146 16 7
339 1 6
257 2 8
257 4 17
10 10 16
255 10 13
62 9 22
257 5 4
378 1 18
444 5 17
374 10 11
99 11 7
204 5 17
142 5 3
273 11 21
301 15 25
108 8 14
411 14 13
247 4 9
251 15 27
457 15 22
12 13 19
294 7 7
291 1 12
487 2 5
437 14 27
84 1 9
400 6 21
180 16 0
23 6 18
463 7 7
214 0 20
188 14 8
180 9 20
152 14 22
224 8 24
291 2 21
404 7 14
171 5 6
142 14 15
413 12 23
357 6 28
111 14 24
25 16 12
427 14 7
438 11 6
14 14 10
388 3 6
55 8 20
371 2 2
245 10 4
155 2 16
306 5 7
487 16 7
361 1 12
435 8 15
25 14 20
477 13 10
109 14 22
208 11 8
257 10 0
42 3 5
322 9 12
159 0 2
226 5 9
469 3 26
74 13 23
9 13 19
399 7 12
305 14 21
126 7 10
319 1 19
186 6 16
409 8 21
279 9 25
371 8 22
478 13 25
306 3 18
399 3 9
341 11 21
350 10 8
378 8 12
495 15 11
142 5 5
360 7 25
47 15 25
357 8 28
374 0 21
28 16 19
263 11 17
390 16 18
29 7 27
181 13 14
177 9 12
397 1 6
133 2 24
491 13 9
75 7 17
202 14 16
207 11 2
149 14 20
204 15 21
103 14 5
17 0 8
238 11 2
300 4 3
317 5 19
201 8 26
13 11 13
229 6 21
146 0 23
19 7 13
404 3 26
272 14 27
258 0 11
61 11 13
176 14 17
223 7 7
103 1 8
405 3 2
336 16 12
92 1 23
71 0 12
309 12 3
469 15 16
322 14 5
176 0 6
182 7 15
320 13 8
65 7 8
129 0 28
171 5 28
84 14 27
166 16 2
318 14 21
346 5 6
460 9 7
175 12 17
329 4 18
90 6 19
162 0 22
259 6 11
260 8 9
408 1 1
226 6 12
93 4 21
210 12 3
19 14 0
33 8 21
366 13 8
459 8 16
204 8 20
143 15 24
208 0 11
465 2 27
499 12 19
115 15 6
440 6 26
435 5 13
488 5 12
148 13 7
197 8 7
363 9 20
12 8 4
475 5 25
79 7 9
24 1 0
302 9 13
96 9 13
125 8 0
82 3 11
119 8 13
34 0 12
19 16 28
38 11 27
130 6 23
429 7 18
73 12 21
441 0 10
382 1 9
440 10 27
148 4 21
325 14 0
333 0 25
492 7 10
298 1 0
44 5 3
61 11 27
91 12 6
62 3 12
238 12 14
362 10 11
14 5 12
429 13 16
325 14 0
98 9 7
316 4 16
150 0 1
17 9 26
261 2 2
241 14 21
186 8 11
6 8 21
377 8 27
210 11 25
202 13 12
64 8 2
440 9 21
227 10 15
141 1 17
453 3 13
270 4 20
131 10 6
60 7 14
137 11 23
235 16 2
278 8 28
497 2 16
446 16 2
461 13 14
344 15 5
293 14 6
440 15 7
251 4 28
57 15 1
411 7 27
351 4 27
55 4 24
331 2 11
404 11 26
128 13 8
485 6 10
341 16 17
339 3 1
197 6 19
461 15 6
254 10 13
71 1 4
212 16 21
224 1 11
436 3 4
421 4 22
165 7 18
64 14 14
67 5 23
416 0 12
373 15 28
237 2 25
250 13 9
383 11 8
475 4 7
177 9 13
297 14 16
306 11 5
183 6 3
233 13 11
20 16 10
490 8 1
190 8 7
268 2 12
470 8 3
191 7 13
229 10 1
115 3 19
193 1 6
11 8 15
415 7 13
476 6 22
201 6 6
461 13 2
144 11 7
3 13 1
472 9 15
231 0 13
407 3 18
403 13 22
436 11 10
347 0 11
50 12 19
48 5 27
5 6 17
481 8 18
97 0 5
191 6 6
351 11 19
345 14 23
401 10 27
19 15 11
244 3 24
207 1 5
7 5 9
378 4 8
407 4 20
177 11 12
230 4 26
177 9 16
448 11 8
74 12 21
82 0 13
34 11 15
65 5 2
275 9 19
312 6 13
429 13 17
354 15 26
87 2 19
426 1 1
182 11 18
152 16 23
307 9 9
223 15 25
260 0 5
494 15 16
259 16 8
442 10 19
496 14 17
382 3 15
225 1 28
313 16 2
453 11 12
174 2 26
301 3 13
378 9 9
286 3 20
46 9 17
351 13 10
81 5 18
80 2 20
106 0 5
344 10 21
287 4 9
257 10 20
337 5 26
488 13 26
456 9 19
287 10 15
203 11 15
198 7 3
382 14 2
54 11 28
355 12 14
69 16 2
485 8 15
349 10 16
19 9 15
134 15 9
304 2 18
90 9 24
246 4 3
330 14 7
432 11 8
12 7 18
356 6 4
203 12 22
296 5 3
148 2 22
15 13 13
21 10 0
272 15 26
115 8 27
20 11 20
85 9 27
281 11 25
271 2 28
484 4 5
145 10 8
107 10 18
496 0 0
239 1 21
469 7 8
347 4 20
432 9 18
413 11 28
226 14 18
471 15 16
171 4 6
232 15 13
464 7 27
142 5 7
481 2 14
271 1 5
114 5 16
55 13 21
305 0 21
437 7 3
40 10 21
165 13 5
380 16 15
169 11 8
316 16 1
330 4 11
457 16 5
394 14 10
4 1 27
478 9 5
214 4 12
448 11 11
360 11 22
83 15 14
107 3 25
287 9 26
1 14 13
311 7 15
484 10 9
419 0 7
193 16 27
352 1 25
468 1 12
140 2 23
57 4 19
79 9 28
184 8 19
264 0 9
104 6 14
271 6 5
76 6 2
167 16 17
137 12 21
307 5 23
156 16 25
92 1 14
185 0 5
322 5 19
162 13 16
284 3 4
254 8 19
460 14 12
229 16 13
151 15 22
320 9 27
493 10 28
303 9 16
272 7 17
90 4 20
174 7 26
138 12 18
195 16 15
203 4 26
341 2 6
362 14 17
98 0 19
161 9 8
401 12 9
221 5 18
9 15 26
394 9 28
458 5 19
199 15 20
397 11 10
12 13 28
456 4 27
405 0 18
92 5 21
397 0 2
354 3 8
169 16 8
97 16 20
434 5 9
470 2 1
468 7 26
488 0 10
279 6 22
234 14 3
402 16 4
219 3 9
225 3 22
253 10 25
77 6 2
286 3 12
312 14 15
187 13 13
361 5 9
315 12 20
474 15 26
59 9 2
123 12 6
266 9 6
151 3 18
283 7 23
183 6 7
77 2 5
377 11 11
258 5 5
318 12 13
203 13 0
42 10 15
71 7 22
303 5 22
92 14 6
87 11 9
415 11 20
90 15 1
332 15 3
64 1 24
491 10 14
353 7 10
256 2 22
95 2 7
279 5 7
246 10 0
467 8 25
393 4 23
180 0 8
352 0 8
350 15 3
137 6 23
169 3 8
428 9 18
270 7 9
110 5 14
200 6 18
169 13 0
264 0 3
143 0 18
276 3 27
340 2 27
187 5 19
30 6 7
158 2 16
267 9 14
379 1 13
203 0 10
368 2 6
262 11 12
34 2 22
71 3 6
239 12 3
238 8 15
114 12 18
79 9 14
394 3 11
345 1 21
237 0 4
142 15 22
150 5 10
108 3 9
115 15 21
237 6 16
8 12 3
183 0 10
235 13 3
78 8 3
455 12 18
429 7 28
110 0 3
413 8 6
487 13 8
176 16 15
34 13 11
92 6 1
337 8 2
150 3 4
421 5 23
216 6 11
63 2 18
160 1 3
419 3 24
266 1 13
244 0 12
273 15 20
123 7 21
256 13 16
157 15 15
331 0 12
323 2 22
75 11 11
463 6 10
284 1 11
371 6 28
305 14 1
19 10 27
442 3 11
351 10 8
432 4 17
82 16 21
372 1 19
374 14 8
487 13 10
280 2 26
288 6 18
458 10 4
277 10 18
370 6 19
424 9 15
30 16 3
6 1 20
402 13 7
467 9 12
291 1 21
188 11 19
58 1 11
305 13 16
216 10 28
398 3 10
41 4 14
421 2 2
179 10 21
27 8 22
27 7 24
416 11 18
234 11 21
319 4 10
311 1 11
266 6 2
282 11 12
119 10 16
403 6 10
35 12 8
414 2 23
360 7 1
460 6 9
397 5 14
399 4 8
457 9 24
60 15 19
442 13 17
373 12 28
397 2 21
448 14 13
373 12 7
428 14 20
441 11 14
23 9 9
315 9 9
428 14 9
472 2 14
431 5 25
89 14 21
483 3 5
154 10 25
287 1 10
425 13 10
170 9 18
202 8 26
153 15 7
225 14 4
173 10 27
156 5 2
30 5 8
92 13 22
190 12 26
222 15 2
246 14 20
479 0 6
28 8 12
322 10 14
246 9 9
440 15 10
465 14 11
160 13 8
430 11 27
77 2 19
87 2 22
206 8 0
272 13 2
417 16 27
393 8 22
141 13 10
128 2 26
67 2 4
143 3 21
433 5 24
228 5 12
114 1 25
495 4 22
321 12 9
481 10 15
397 1 20
142 12 28
131 16 24
364 13 25
348 13 16
264 4 27
459 13 26
268 0 25
271 10 24
237 8 17
385 10 11
308 4 25
38 12 3
175 3 2
11 13 11
239 6 15
285 8 9
499 6 22
228 4 26
224 2 26
357 1 0
350 3 13
263 7 3
347 1 17
343 7 2
291 1 8
160 4 21
375 7 14
169 0 22
379 11 23
491 14 15
394 5 13
367 7 7
285 0 18
202 13 28
96 16 24
240 14 23
298 9 9
152 7 26
75 6 12
267 10 9
148 8 1
478 7 11
165 5 14
238 15 5
223 2 8
111 8 10
431 10 9
211 8 3
375 14 13
327 12 8
89 14 15
15 6 21
137 6 17
392 3 20
216 8 16
167 14 4
287 8 1
453 4 19
290 4 27
158 16 21
343 2 1
469 16 21
156 12 11
227 10 21
175 6 21
98 9 4
203 10 11
338 4 8
58 5 14
76 5 2
126 13 18
217 2 13
109 2 13
252 5 10
273 8 9
426 15 3
179 6 22
65 7 20
228 11 16
78 2 13
400 7 10
391 8 25
365 0 4
402 9 27
195 9 12
277 3 22
278 15 7
42 1 25
216 7 16
248 4 21
76 15 3
34 1 17
257 7 10
459 13 9
193 5 0
80 2 12
359 8 28
117 0 16
455 10 6
347 12 12
409 6 1
204 11 8
296 0 14
130 15 27
194 5 22
180 8 5
131 14 12
370 16 14
468 6 28
426 15 9
13 10 21
115 3 0
235 15 24
378 11 24
341 11 11
163 12 3
66 5 10
362 7 24
488 1 19
232 7 18
391 3 21
304 8 2
373 15 10
129 3 9
348 16 4
111 7 1
97 1 3
33 12 0
364 10 26
127 7 25
408 11 10
102 2 8
320 9 19
202 13 3
374 2 20
274 4 11
204 1 9
54 10 20
272 14 24
219 6 4
363 0 24
190 6 7
335 16 13
59 13 28
20 14 1
318 4 26
93 11 9
76 4 12
393 3 22
286 0 3
218 13 19
258 12 21
352 4 21
198 6 24
362 3 26
162 4 28
188 9 13
20 8 25
124 12 20
202 3 16
192 0 25
69 13 9
409 6 13
72 15 17
360 11 28
433 0 26
62 5 16
173 0 8
166 16 18
489 6 24
273 6 15
7 15 28
490 10 28
300 16 25
405 0 19
157 15 23
370 8 0
311 13 8
486 12 15
52 14 18
422 13 5
384 15 15
253 0 20
398 4 9
364 6 3
328 8 5
262 2 28
232 13 24
206 11 25
224 16 1
192 8 0
213 8 15
321 8 0
451 14 18
93 2 13
360 10 18
199 9 25
453 9 22
477 12 7
109 10 28
335 8 22
416 13 15
247 11 14
152 8 2
327 1 13
142 2 23
102 11 12
161 12 14
377 14 16
25 11 19
176 11 27
133 11 4
0 12 6
186 0 26
291 15 28
188 2 15
419 11 21
413 11 8
332 5 22
323 4 8
180 3 16
210 5 2
386 8 13
198 7 23
207 13 11
354 16 1
385 7 26
200 5 13
111 16 4
15 7 18
150 16 15
124 2 22
190 12 26
91 16 20
346 7 17
451 12 17
204 14 28
51 14 27
465 7 28
333 8 8
108 13 12
202 14 11
107 16 2
496 16 0
74 9 14
418 3 21
445 11 10
423 15 8
236 7 23
493 15 10
369 16 10
299 0 25
239 10 8
408 8 21
453 3 20
296 1 18
281 5 23
428 6 9
497 7 18
460 3 19
469 15 24
69 14 3
26 8 26
15 2 23
439 12 21
87 4 8
264 11 19
87 16 28
300 14 26
303 9 13
198 8 24
441 9 25
110 14 1
150 2 4
11 1 22
449 9 27
195 15 22
0 5 9
242 12 12
156 12 13
260 3 23
425 7 17
209 9 25
408 1 6
365 12 9
193 14 1
305 14 16
155 9 18
451 5 27
394 14 21
433 5 3
140 16 14
250 3 26
255 13 18
464 0 15
338 14 3
16 1 3
298 5 9
230 14 16
125 10 17
149 9 0
123 0 22
172 10 20
263 3 11
404 5 22
252 15 8
410 6 11
435 7 8
14 6 25
48 2 20
123 10 16
195 4 22
164 14 18
390 11 6
229 14 8
283 8 4
391 1 17
387 4 10
18 6 2
431 0 24
102 12 7
42 16 3
483 2 2
372 9 26
30 12 14
415 6 11
237 8 9
407 0 19
81 7 10
439 14 20
15 13 28
12 10 5
134 15 23
179 11 16
418 5 11
81 0 7
487 7 21
458 6 16
116 0 22
27 0 28
284 12 20
374 7 19
443 16 19
108 14 24
346 8 12
388 3 14
341 4 17
437 15 18
3 10 18
255 0 5
330 5 14
288 13 19
96 5 3
233 15 20
229 14 25
423 3 11
487 6 22
81 8 9
31 14 27
293 0 8
20 13 0
45 14 14
429 11 18
79 0 13
490 6 8
86 3 22
133 11 2
190 9 10
335 16 28
289 4 8
229 4 4
434 16 18
359 10 7
484 14 24
471 11 15
222 6 7
430 8 19
238 15 18
2 6 21
267 16 22
235 14 12
11 14 11
147 14 7
395 2 27
270 9 18
399 10 11
41 3 6
192 10 4
404 3 1
483 1 4
448 3 17
327 11 19
447 7 1
471 7 19
318 2 6
39 10 9
305 16 1
402 14 18
178 6 0
388 5 27
399 10 7
337 2 9
138 1 6
495 4 16
196 10 15
81 0 16
391 10 15
119 5 11
269 9 6
81 13 27
202 4 17
52 1 21
476 13 19
311 15 3
36 11 28
433 9 24
439 13 23
41 12 13
76 16 8
211 11 0
160 16 17
45 0 11
4 15 11
95 9 13
202 14 19
393 2 7
71 2 9
487 14 24
16 3 7
132 4 17
78 13 20
484 2 19
106 12 6
264 5 28
21 5 4
184 5 17
352 9 20
61 10 27
299 16 21
141 10 15
441 7 7
378 1 20
474 6 1
455 8 27
465 15 15
256 16 19
230 6 15
88 6 28
394 16 12
233 10 22
283 12 21
143 11 14
241 13 26
388 2 6
127 4 28
442 12 3
352 15 13
307 6 10
114 2 14
403 3 5
415 1 20
227 10 14
22 0 25
294 11 16
361 8 10
302 11 4
346 13 17
105 14 9
487 1 28
18 2 24
207 15 1
385 0 26
251 7 7
410 4 6
388 8 24
21 5 25
293 4 23
396 16 20
123 15 28
55 6 10
404 15 3
115 5 21
399 16 18
285 2 18
230 9 13
327 2 20
161 15 23
470 14 2
188 9 9
29 0 28
412 14 8
148 15 21
142 2 19
81 7 7
364 11 11
141 15 1
45 14 27
254 15 6
369 3 17
498 13 27
362 15 19
238 1 27
40 13 25
211 10 17
229 16 0
278 14 23
56 16 21
178 8 6
403 7 27
222 9 4
277 1 16
37 1 8
211 3 10
401 10 6
450 1 16
68 1 6
314 4 24
372 14 17
363 9 28
42 1 17
232 3 13
195 1 5
470 8 4
466 1 26
192 8 3
36 12 6
120 0 11
356 12 27
15 8 3
492 5 1
135 3 19
234 9 5
338 14 3
206 16 17
138 3 15
230 4 17
133 12 19
404 14 22
124 4 12
237 10 21
87 7 23
174 12 3
415 3 22
242 3 16
37 2 11
374 15 17
250 6 14
55 12 18
283 16 19
229 15 13
404 0 9
275 6 24
228 7 14
263 11 3
332 9 16
486 10 10
408 11 14
377 1 26
472 1 4
279 2 14
105 15 23
460 0 1
480 2 23
318 12 17
380 11 22
99 1 1
254 13 26
317 3 21
449 11 21
30 2 15
283 7 16
392 6 11
493 14 27
134 16 1
426 6 6
391 10 10
78 15 12
387 7 23
404 16 26
441 11 26
24 11 21
299 16 16
371 4 10
45 16 26
151 0 7
10 4 25
79 1 23
217 2 23
487 12 26
336 6 4
265 5 6
256 4 7
126 4 24
172 12 5
26 7 12
386 6 7
53 1 4
292 15 6
56 5 18
101 7 23
387 0 27
218 2 11
258 16 21
218 1 6
117 14 14
432 2 20
362 2 23
208 3 5
10 4 9
364 16 8
304 15 20
55 14 20
30 6 23
179 10 1
262 7 9
487 15 21
198 2 27
32 7 15
333 6 9
51 5 5
477 5 28
88 0 0
7 0 9
143 3 6
366 11 22
210 16 24
186 6 12
207 12 25
24 15 25
354 12 23
125 13 1
471 7 12
385 5 14
351 2 21
316 9 16
177 0 13
308 15 3
342 10 27
439 14 17
427 14 28
482 15 25
299 2 28
134 3 6
358 6 10
393 2 23
161 6 20
492 13 3
492 13 5
296 2 5
248 16 8
256 1 8
266 7 13
278 9 27
257 13 23
374 1 9
302 5 23
87 13 1
229 14 0
162 1 3
186 9 25
62 0 17
49 13 7
457 3 4
71 6 5
106 5 24
132 15 0
263 6 15
108 2 13
266 5 1
83 4 2
38 6 24
291 11 3
122 3 19
256 2 9
364 10 8
443 15 23
308 1 20
231 13 3
388 11 12
211 10 27
98 12 22
396 15 7
46 8 1
18 13 26
140 1 16
409 1 6
201 15 11
104 14 21
30 2 28
454 4 4
445 8 9
357 13 7
37 2 3
337 6 24
461 14 20
306 13 14
442 0 20
83 4 17
442 0 1
238 7 21
42 10 5
321 5 16
204 6 0
47 12 7
33 6 5
369 0 10
255 15 4
38 6 18
71 4 14
72 4 21
191 12 16
50 2 19
482 12 26
35 7 19
444 16 20
350 7 22
167 0 8
57 9 2
491 11 25
426 4 6
412 2 17
179 12 7
315 11 8
388 12 20
421 3 6
373 9 17
462 1 4
338 16 18
10 13 7
50 4 26
236 7 17
175 9 26
41 16 27
165 8 4
144 16 24
453 5 15
294 4 19
344 7 14
355 12 16
3 15 2
78 12 11
63 3 18
58 10 16
175 11 26
53 7 4
42 15 18
226 8 13
185 2 15
311 1 0
158 8 14
410 3 6
155 16 22
427 11 25
269 10 24
340 6 19
81 16 14
287 0 25
8 9 6
197 6 17
84 12 25
153 2 25
195 3 12
69 16 15
408 16 21
18 1 7
171 0 26
232 1 4
275 9 12
464 9 4
456 12 24
4 9 19
330 1 0
331 11 15
275 16 21
59 1 5
10 16 0
145 3 10
118 1 11
209 6 11
331 10 21
380 6 9
116 8 27
286 14 7
184 10 10
244 12 16
161 13 25
379 5 18
370 9 16
310 8 1
287 6 8
319 6 27
224 8 8
442 14 11
3 8 17
402 7 5
311 2 4
77 1 22
340 9 1
4 3 2
284 16 25
74 13 17
50 0 24
329 13 3
143 14 28
428 3 5
478 14 20
177 2 25
234 10 9
315 13 20
281 11 4
250 4 15
477 7 6
30 11 8
279 11 2
113 12 24
416 13 8
10 13 5
358 1 27
78 0 22
320 12 15
266 7 23
451 2 3
392 14 20
190 3 25
174 2 26
277 13 25
235 14 23
140 3 6
179 13 17
117 0 6
161 6 24
263 14 2
136 2 20
42 0 16
246 12 27
203 5 3
72 7 23
135 3 28
311 15 21
288 8 0
349 3 19
371 11 4
244 3 26
196 16 22
270 2 18
441 11 23
50 9 4
259 4 8
348 4 4
438 12 2
374 1 5
133 2 18
34 14 9
437 13 21
398 13 4
177 6 14
372 4 22
144 1 21
108 13 19
34 2 4
132 5 14
395 2 4
68 8 28
498 13 22
135 10 2
418 5 16
461 10 21
398 1 6
67 10 21
404 1 21
272 10 20
367 4 4
258 9 3
48 6 18
125 12 14
443 5 14
461 9 17
341 6 9
419 10 14
132 13 14
358 4 22
46 15 24
492 13 9
139 12 20
93 10 22
376 4 0
230 4 6
134 4 28
286 15 24
49 5 21
99 2 26
16 15 7
98 8 21
10 14 0
254 14 5
286 5 28
34 15 4
235 1 27
470 6 13
254 0 21
319 13 15
141 13 0
286 11 8
426 1 21
281 8 7
292 3 25
366 10 4
57 9 13
314 1 2
163 5 4
204 15 14
458 4 11
115 11 0
400 6 8
446 8 4
305 12 7
23 11 15
95 7 15
197 6 17
270 7 28
394 15 2
255 14 11
327 4 20
489 0 0
89 8 7
244 9 2
411 10 10
431 3 4
272 11 1
119 2 7
54 1 15
426 4 20
334 4 23
395 7 13
495 9 21
177 12 17
383 12 14
404 13 4
479 3 22
258 7 0
393 10 13
38 8 0
56 1 23
172 10 26
174 1 24
286 11 2
39 4 4
228 13 12
9 16 27
117 3 18
20 9 17
51 4 0
398 8 0
350 2 6
448 14 2
240 1 2
470 1 14
325 2 0
396 6 16
245 0 4
267 0 26
268 2 18
288 9 24
204 5 25
220 3 5
411 0 17
451 16 1
91 7 14
256 5 20
5 16 21
16 1 5
150 12 17
114 4 22
39 2 25
290 7 13
214 15 9
62 0 26
62 15 7
364 3 3
138 14 0
333 7 13
159 5 13
337 4 10
201 10 15
227 0 8
240 14 22
157 15 5
442 7 5
456 10 14
424 0 20
231 9 3
48 12 6
410 2 17
449 5 19
34 9 21
10 2 17
188 14 13
129 10 20
124 12 25
394 3 2
316 9 1
37 12 28
67 5 4
220 14 23
242 15 16
188 2 0
382 13 15
32 4 7
286 10 23
154 1 14
302 4 11
401 1 14
382 2 19
134 10 27
196 2 16
201 14 26
39 3 0
150 16 17
191 15 26
145 2 6
115 14 25
160 0 8
101 1 16
167 3 27
71 13 22
499 13 14
441 11 1
399 13 26
49 6 12
185 3 23
396 13 16
74 7 25
210 0 28
260 5 5
261 4 11
337 2 9
397 15 1
450 14 28
476 12 13
82 13 25
329 14 26
61 11 27
23 3 21
11 3 25
143 16 3
150 12 20
64 16 21
292 0 10
217 0 17
128 7 9
323 14 7
286 4 8
367 1 24
97 5 5
355 9 16
437 6 9
95 9 1
327 2 22
451 8 28
60 13 11
217 2 1
409 11 19
64 3 6
372 3 9
307 9 9
256 4 20
268 12 16
254 12 1
47 16 27
235 15 16
377 7 21
330 14 15
150 6 11
352 2 6
488 14 12
98 1 25
205 1 16
11 5 5
318 10 0
470 14 28
368 10 20
40 11 16
365 14 4
185 9 14
480 3 4
243 10 2
6 5 1
202 6 24
305 14 21
411 14 20
291 7 8
312 0 10
205 6 7
328 0 26
336 3 17
291 3 21
207 4 6
428 1 25
294 16 9
106 10 27
14 8 15
401 8 24
56 13 5
246 12 4
183 12 9
163 6 15
444 12 2
425 16 25
259 6 22
215 0 16
250 2 9
491 5 23
331 9 13
74 1 25
171 9 11
41 12 6
79 8 6
52 3 25
231 3 3
312 4 6
0 11 1
300 0 26
482 12 2
109 10 21
131 6 3
163 16 22
340 3 5
89 10 8
232 8 3
498 13 2
86 10 6
410 10 5
472 6 21
249 6 2
148 2 20
312 14 27
342 1 15
205 2 15
429 5 25
385 6 24
96 16 16
457 6 23
68 13 6
368 5 20
166 9 5
238 7 26
131 2 23
440 3 26
136 14 27
422 9 24
372 12 3
126 4 19
455 16 0
112 8 18
328 10 28
37 1 1
213 7 22
332 6 12
112 11 4
284 4 3
434 14 23
9 4 20
430 9 24
68 6 1
444 15 1
26 8 27
450 12 15
13 13 15
15 9 20
257 14 14
271 2 10
8 4 12
110 14 26
127 16 18
392 14 27
372 2 15
164 11 17
358 10 10
175 14 5
349 4 5
477 10 23
200 13 12
435 2 16
11 11 22
421 6 14
37 12 15
428 3 1
315 3 16
269 14 14
445 16 19
106 4 11
150 7 5
90 5 12
323 14 5
151 2 18
362 4 28
307 0 14
423 8 8
424 4 0
346 0 28
68 14 9
167 10 1
84 5 17
452 14 26
297 3 22
308 3 16
257 13 16
31 11 26
339 2 21
85 12 24
273 11 6
117 1 21
278 12 27
173 8 11
88 3 5
340 14 14
129 5 4
335 16 26
166 7 23
296 2 1
220 16 15
311 7 4
188 13 14
220 3 10
205 0 11
126 0 26
113 4 0
459 11 15
288 1 20
79 5 6
199 1 20
314 4 18
341 9 23
356 4 14
274 2 3
12 12 4
253 1 8
281 9 23
112 4 20
131 7 12
435 8 28
386 1 0
433 11 16
477 9 15
68 10 0
79 9 20
165 6 25
497 5 4
282 16 13
335 1 14
216 3 7
463 5 1
89 2 7
433 7 7
140 3 22
284 16 12
9 5 15
419 7 10
218 16 13
408 11 11
466 0 26
76 8 2
63 4 11
428 4 10
154 16 8
314 5 17
35 11 22
113 12 22
177 9 16
22 6 11
319 16 23
217 8 15
420 9 28
50 3 18
203 9 25
45 8 15
227 1 8
97 8 19
165 13 23
370 8 16
63 3 23
437 14 14
42 4 21
435 10 19
1 13 4
7 10 3
156 9 5
390 15 0
458 0 26
27 15 26
408 14 7
142 3 12
273 5 25
443 14 18
472 7 2
207 13 9
302 2 22
101 0 16
349 13 1
315 1 26
367 12 26
201 16 4
155 14 27
92 8 17
489 7 22
186 13 10
168 4 20
320 8 26
486 12 15
352 1 24
248 3 8
358 1 23
130 14 10
112 7 21
396 4 5
461 2 19
181 3 21
429 7 20
345 0 12
345 12 20
237 0 27
95 9 2
165 14 20
474 0 17
490 14 28
152 13 20
45 0 28
178 12 2
56 15 2
347 4 7
488 6 22
308 5 12
227 14 17
184 11 16
312 14 25
314 11 25
65 7 21
223 13 27
456 3 17
182 0 0
428 6 5
417 13 28
240 16 25
366 11 12
118 4 1
402 16 14
321 12 27
425 5 12
455 14 18
286 9 19
230 0 27
211 11 27
255 9 13
88 10 9
8 4 2
103 12 2
251 1 4
123 1 15
64 14 11
374 2 19
164 15 25
254 12 25
15 2 5
419 5 24
258 16 2
33 12 28
394 4 5
201 13 13
295 4 15
413 4 2
229 2 28
395 5 8
489 10 6
307 4 6
132 1 8
308 0 11
137 13 21
416 2 16
146 1 21
343 16 1
253 1 14
362 5 12
248 16 22
311 9 0
151 2 14
289 10 5
497 13 17
109 14 3
42 1 27
220 0 16
476 9 28
339 16 11
351 8 17
93 12 9
278 13 4
103 5 5
65 4 22
4 4 14
420 5 0
330 3 12
55 11 3
324 10 17
192 2 10
106 8 8
454 5 6
484 14 23
76 4 13
105 1 27
277 5 2
337 7 8
492 12 24
363 2 5
106 6 3
138 2 7
251 10 22
224 13 5
286 9 13
304 2 4
230 9 11
455 8 3
199 4 11
251 6 15
392 6 15
122 6 0
319 14 18
206 5 25
418 13 23
451 13 8
355 16 7
49 8 27
325 9 8
33 16 19
447 14 25
347 5 6
88 15 2
345 7 22
460 0 8
356 2 12
392 13 16
186 11 23
100 12 15
416 16 14
266 13 27
267 5 5
144 2 10
286 8 2
3 11 13
287 6 15
250 12 3
60 3 21
344 1 17
487 15 17
412 11 6
473 3 10
87 2 0
282 10 21
244 13 2
4 3 12
361 9 24
187 10 14
435 4 5
316 8 28
454 8 17
402 9 28
298 3 12
194 2 22
199 5 14
23 15 16
498 13 4
274 7 27
60 10 28
487 13 2
150 8 12
476 9 16
168 6 5
469 5 28
102 15 3
178 10 20
184 0 28
95 16 2
361 0 16
302 12 15
15 4 7
433 14 9
220 13 20
84 4 11
0 8 19
383 14 1
281 0 25
469 15 8
327 5 10
165 16 25
214 6 6
146 4 26
69 15 9
285 1 2
164 7 23
394 0 0
344 11 25
438 8 21
409 2 3
36 3 12
228 5 5
454 8 6
443 15 24
408 14 9
183 8 3
17 2 6
314 0 10
379 13 16
387 13 9
1 10 21
162 0 4
95 2 1
459 6 12
407 2 2
14 11 17
230 8 1
234 7 25
0 9 25
62 0 25
156 8 11
320 6 27
374 6 3
203 9 6
79 14 26
346 11 12
289 4 16
325 7 8
300 0 23
385 12 15
265 10 12
383 1 2
386 9 9
204 2 28
39 0 4
473 1 23
176 16 5
88 1 23
91 4 3
218 2 7
149 4 1
119 2 2
116 1 6
421 7 19
328 14 25
431 0 1
401 5 24
39 15 11
2 9 5
56 15 6
215 2 15
194 15 20
185 14 2
137 13 18
437 11 14
15 0 28
347 4 26
374 13 18
279 6 24
290 7 16
82 10 27
220 10 16
67 7 26
467 4 12
11 0 8
464 15 9
202 9 2
211 14 1
312 15 0
448 14 23
3 8 17
351 10 25
443 4 2
302 7 17
308 12 7
135 8 3
206 10 17
223 6 1
293 14 21
389 10 1
436 6 23
398 3 16
115 2 21
260 12 21
251 9 8
362 7 25
106 16 1
363 0 14
378 5 16
156 7 10
377 4 10
294 15 15
234 4 8
287 14 6
287 2 17
54 11 6
45 8 7
146 2 10
411 5 20
105 13 6
420 7 8
116 8 0
199 13 4
352 0 15
414 14 16
272 1 24
204 6 12
27 7 26
256 4 25
169 12 8
344 14 0
11 4 3
12 6 7
354 8 25
298 1 18
321 3 10
116 14 12
369 4 17
270 14 8
63 15 23
297 16 9
110 15 22
463 4 10
296 10 15
67 11 20
63 4 15
251 8 3
393 15 2
68 7 12
51 0 14
142 13 1
78 3 21
173 12 26
237 9 24
257 10 0
464 16 13
408 2 0
278 13 16
187 9 3
46 15 22
327 16 8
139 1 19
196 8 1
201 0 21
158 7 2
184 8 12
370 11 18
416 13 17
115 12 13
320 0 6
447 1 14
32 14 27
422 15 11
68 11 20
175 8 28
485 8 6
214 15 2
65 2 17
169 5 4
82 3 4
102 12 6
147 5 7
379 7 15
31 5 25
316 0 8
241 8 4
389 13 26
29 15 3
466 3 23
484 5 7
400 4 21
367 14 21
86 16 13
46 10 26
375 9 11
110 8 20
246 16 4
312 9 16
442 11 19
56 12 12
152 13 23
168 5 15
291 14 17
288 4 5
269 0 22
275 4 18
410 9 6
274 13 15
128 0 10
348 4 12
133 1 16
71 0 7
119 11 12
63 7 12
113 12 0
341 16 22
162 16 13
351 10 7
438 4 10
492 8 26
325 0 0
466 8 28
242 1 14
394 5 4
20 13 2
338 15 22
289 14 21
239 14 6
92 12 16
325 10 27
135 15 0
233 2 16
201 8 14
152 11 25
87 10 1
452 8 20
47 0 4
391 6 23
321 8 2
305 2 20
83 7 10
6 10 28
117 2 10
162 10 19
32 16 0
95 8 28
344 5 20
361 15 10
97 1 24
76 3 27
382 7 13
397 4 13
419 9 15
218 7 17
370 5 14
256 13 21
439 2 24
4 16 28
229 13 24
441 11 7
459 15 20
474 7 12
77 4 8
413 12 19
307 13 27
303 9 27
254 2 0
246 13 25
160 8 1
490 16 6
318 2 11
445 4 12
171 11 2
172 11 5
480 13 19
9 10 10
202 16 6
200 2 2
78 16 5
422 7 9
75 9 13
217 5 12
330 1 26
394 13 9
375 11 0
145 5 18
201 10 23
307 15 15
472 15 10
73 5 3
371 14 21
418 3 5
55 5 6
175 2 0
404 13 16
41 1 4
85 10 5
439 4 27
341 11 10
493 9 2
210 3 22
59 0 13
72 12 22
287 4 16
307 8 12
19 4 25
461 0 21
116 3 23
434 5 16
1 13 4
331 5 14
330 13 9
121 3 24
361 0 10
25 4 2
231 12 7
15 4 23
67 6 10
407 8 9
129 11 24
66 5 11
110 10 23
270 2 13
228 1 3
33 1 28
8 13 26
261 8 9
35 9 6
221 4 22
170 0 15
34 9 13
117 2 25
492 10 9
1 10 25
10 4 26
152 6 13
224 15 11
259 11 26
185 11 0
340 0 2
480 1 25
286 7 21
126 6 28
368 16 20
331 11 27
386 2 25
342 5 0
258 12 0
359 1 4
217 3 21
419 13 23
33 4 11
492 9 17
223 1 17
367 13 7
278 9 18
492 12 5
216 15 17
298 8 9
292 3 28
469 1 19
390 14 23
149 11 13
145 0 23
498 4 14
131 2 16
315 2 8
87 6 19
478 1 27
141 8 2
158 7 1
389 5 24
35 15 5
4 11 18
493 15 12
297 10 22
371 4 11
458 9 15
289 16 10
428 6 14
119 16 26
245 5 10
426 16 28
52 2 5
340 2 23
56 6 0
484 9 16
326 4 26
475 7 8
208 11 20
176 1 25
186 14 10
156 14 14
288 14 10
135 1 2
205 8 14
413 12 26
180 15 6
432 7 7
365 16 3
443 6 1
455 12 2
268 14 16
323 14 9
240 14 24
271 12 24
470 1 1
353 5 16
477 14 5
34 15 11
7 4 11
295 6 16
205 10 24
211 8 18
375 3 12
448 0 16
18 15 19
294 5 14
327 2 24
482 7 22
471 11 28
54 15 1
61 8 15
66 3 0
179 3 8
337 13 3
75 4 18
27 0 20
119 7 23
292 8 9
61 13 3
486 5 1
315 5 20
31 14 17
287 3 10
52 13 9
183 5 11
365 10 16
103 14 9
249 4 28
455 4 27
357 12 27
270 8 1
14 7 8
222 10 11
92 10 17
469 3 16
211 0 6
258 12 0
159 7 13
483 1 21
210 15 14
415 6 5
492 2 19
128 3 8
259 10 17
3 7 17
303 8 18
185 16 4
441 1 6
193 11 11
24 12 1
159 6 0
178 13 2
108 12 28
236 11 8
370 12 13
340 15 7
395 5 20
230 14 4
448 7 8
173 8 22
182 12 20
462 9 2
484 7 27
342 3 22
469 11 22
278 11 0
172 1 24
54 5 2
110 12 16
415 5 7
424 11 3
321 14 1
187 0 6
420 8 25
62 8 17
67 3 12
167 8 16
238 10 21
311 6 9
381 1 26
407 15 12
350 5 6
443 0 0
392 2 2
158 10 26
476 5 21
54 7 27
301 8 1
354 4 25
472 10 7
65 2 6
293 13 13
105 8 2
172 11 7
189 1 8
137 6 4
440 6 28
74 15 9
203 13 12
419 8 14
445 4 5
361 3 5
3 1 25
482 1 27
111 7 15
403 12 1
52 1 6
269 15 22
276 1 22
484 11 25
435 13 11
381 8 22
229 6 17
155 5 13
387 0 2
310 3 9
123 2 14
198 6 14
259 1 2
401 5 7
482 16 10
363 12 19
24 3 26
251 12 12
242 5 7
98 6 7
57 12 26
360 11 20
326 3 23
197 9 21
40 10 14
474 6 4
455 14 18
339 9 16
458 5 3
209 15 7
458 16 25
169 3 25
296 7 9
121 8 18
9 11 10
174 2 23
170 1 8
76 13 24
323 6 9
239 14 28
223 7 1
337 3 10
477 11 24
387 15 1
289 5 8
457 11 1
148 12 20
337 12 10
402 0 12
166 9 26
180 11 22
141 13 11
393 2 10
71 15 22
13 10 22
281 2 2
419 11 3
115 16 0
150 3 22
228 6 17
407 3 0
371 1 18
443 7 9
110 0 6
2 5 13
357 4 27
114 5 27
227 5 24
262 5 18
204 8 5
45 1 20
318 3 21
440 11 17
105 9 1
18 14 1
66 2 23
330 12 2
138 6 1
165 6 26
493 11 16
286 1 8
134 7 26
78 13 24
491 15 12
134 4 20
434 13 21
81 1 5
371 3 27
333 6 4
461 10 10
362 5 11
447 15 13
353 6 28
186 16 9
228 16 4
283 15 3
383 8 18
185 8 10
408 14 21
354 7 19
92 15 16
104 1 2
450 10 20
19 12 14
286 15 12
476 0 19
362 6 5
298 16 7
450 9 5
465 12 17
291 0 3
96 5 20
267 0 13
227 3 9
163 9 3
128 11 17
352 7 23
215 1 2
307 16 1
428 7 17
34 16 13
361 16 24
245 5 11
453 14 8
181 5 15
227 7 4
418 6 27
407 1 25
162 13 5
290 3 12
280 12 11
52 11 14
171 9 28
215 2 21
287 3 0
385 0 15
266 13 28
33 10 21
447 6 11
186 7 19
100 15 12
309 11 15
230 7 22
72 1 11
447 6 4
494 6 24
234 9 22
319 15 14
250 5 0
278 10 10
162 11 6
327 13 1
30 2 20
389 15 12
269 9 19
243 5 3
158 6 7
416 12 14
65 12 14
367 9 26
68 1 24
335 2 13
189 3 2
110 15 28
143 6 10
82 2 16
499 13 2
374 13 28
142 9 19
91 8 4
31 16 22
371 2 12
114 14 20
396 7 7
132 11 17
13 0 12
435 15 3
461 8 28
160 3 15
122 4 7
163 15 12
92 2 7
313 7 9
357 4 26
89 3 15
346 8 12
229 9 1
352 14 1
436 9 28
28 14 10
167 11 27
211 16 27
338 8 20
458 13 21
165 3 15
104 2 4
287 13 24
346 12 26
226 8 3
354 14 18
436 0 23
188 3 3
192 10 14
33 16 21
211 1 5
299 0 24
91 4 16
174 14 25
347 6 11
130 9 2
381 7 16
383 6 12
62 9 21
227 8 13
122 8 19
219 16 18
234 16 10
259 2 12
237 2 14
356 3 1
49 16 18
188 1 8
165 3 17
153 9 23
219 16 9
276 6 5
306 4 27
399 1 16
13 8 5
253 7 11
303 3 3
112 1 27
426 11 16
90 10 3
327 13 20
391 5 24
490 4 2
446 12 24
146 5 26
474 13 26
307 11 12
478 9 9
406 16 18
237 11 2
48 13 9
353 9 22
146 1 11
31 3 9
250 16 18
383 9 12
226 3 25
368 12 0
411 4 6
375 6 10
446 14 3
67 3 16
464 13 18
379 0 20
282 14 1
152 7 7
364 8 23
150 14 14
260 15 25
345 12 3
149 8 0
290 10 2
155 8 17
204 13 26
433 14 23
115 9 12
284 3 4
498 14 27
448 12 4
462 2 21
315 4 27
108 9 18
355 11 3
242 1 2
139 6 10
324 6 19
175 2 17
197 11 18
450 16 4
40 0 26
323 2 1
418 1 10
345 9 10
496 7 15
332 1 26
336 8 27
333 14 4
305 12 17
16 5 22
485 9 27
322 8 24
168 0 0
399 16 3
5 11 5
216 10 10
269 8 1
406 1 25
436 14 9
434 16 2
492 10 19
409 10 21
13 13 4
259 6 9
210 5 0
351 8 22
270 0 9
48 6 7
42 2 8
309 2 11
409 10 20
484 12 9
66 2 15
466 1 10
497 4 14
138 11 15
143 6 5
95 4 24
192 7 11
270 1 27
92 8 16
278 9 22
308 4 13
411 12 10
106 5 8
227 4 21
181 4 26
368 6 6
423 0 9
158 3 27
390 9 26
473 16 20
369 6 26
338 5 25
39 10 5
457 4 28
46 0 17
37 15 15
411 3 16
17 4 14
45 3 8
207 2 3
452 16 15
222 1 7
176 9 20
406 4 21
145 4 20
49 2 0
378 16 6
27 10 14
469 1 11
474 16 22
34 0 13
92 4 4
270 9 25
141 7 13
101 2 6
445 2 17
491 5 4
292 4 10
41 2 22
319 16 24
312 2 2
221 16 9
203 16 19
391 2 16
425 12 11
200 6 22
407 12 6
45 13 9
242 9 24
384 16 7
105 5 17
183 16 18
487 5 12
377 13 0
140 1 5
89 14 21
245 1 11
247 4 15
232 9 14
414 11 11
164 10 3
394 9 12
443 9 3
33 15 24
125 0 2
325 6 28
7 3 23
119 15 9
332 14 1
485 13 2
37 3 12
403 4 14
384 10 7
445 6 15
236 15 6
232 5 6
33 12 2
350 16 27
374 7 5
141 8 20
444 0 12
183 8 14
409 9 23
309 15 23
401 12 26
486 15 16
267 15 18
347 12 4
33 3 16
346 13 0
404 4 3
47 16 11
253 14 14
54 13 5
419 4 22
307 0 15
227 8 2
469 2 13
94 4 20
75 7 14
331 5 3
270 15 16
366 13 3
309 10 0
144 7 16
356 13 5
371 6 28
30 2 19
200 4 10
338 15 10
316 16 5
225 10 24
295 7 16
144 12 26
60 1 7
414 14 11
306 8 28
404 8 27
405 11 23
391 11 26
96 9 25
406 15 19
253 13 11
228 2 20
186 8 11
43 3 26
352 1 4
255 13 11
32 8 25
276 9 8
46 6 12
397 2 13
337 5 5
286 10 4
20 0 24
314 9 17
479 10 17
112 8 10
175 3 17
467 1 3
241 8 6
167 16 9
393 15 12
328 0 16
177 13 16
192 9 0
71 2 27
84 5 27
43 0 23
305 0 4
443 5 6
319 4 0
372 12 12
431 6 0
305 10 23
263 15 0
392 15 12
25 16 27
418 16 11
350 8 12
98 14 19
141 0 15
458 9 28
425 1 16
431 12 12
494 1 2
31 5 9
81 3 18
128 11 18
315 2 11
382 13 27
227 9 4
447 7 14
407 7 21
51 0 15
113 2 9
75 1 25
445 14 0
372 1 16
166 6 28
178 4 1
187 0 6
305 5 14
109 15 21
152 12 1
371 3 22
249 10 1
469 0 10
274 4 1
231 1 4
87 11 3
198 14 2
84 2 17
158 3 3
343 0 6
259 15 0
415 14 8
176 13 20
470 9 13
156 11 19
183 10 11
13 14 28
386 4 1
6 3 21
86 0 23
201 5 26
28 11 18
379 7 7
73 4 28
220 5 27
306 10 16
262 12 26
5 2 14
365 5 8
457 6 3
123 15 9
77 1 0
121 0 28
438 9 1
169 5 3
215 8 17
464 2 25
113 16 12
36 13 16
250 4 0
116 10 19
126 4 20
254 13 25
323 16 18
431 5 8
447 14 27
467 14 9
85 0 7
198 1 28
248 5 5
7 11 7
401 11 16
263 7 22
350 5 7
55 15 3
358 5 14
27 11 16
132 4 0
233 9 1
42 0 14
476 14 10
405 12 17
105 4 9
140 15 8
23 15 26
389 11 26
195 13 5
70 5 4
97 10 2
44 6 24
238 12 21
460 14 7
496 11 17
146 12 17
27 8 3
411 14 17
183 10 5
111 16 14
324 9 10
130 15 6
309 15 15
192 6 23
439 10 14
114 14 4
375 3 21
332 3 11
205 12 7
218 4 1
72 11 13
19 0 22
197 11 14
36 8 14
476 14 15
191 15 10
183 15 7
186 11 9
362 5 3
283 16 27
385 7 20
175 3 20
73 7 2
212 6 8
306 5 28
177 12 22
478 12 3
157 1 24
448 6 17
164 8 18
173 11 22
149 13 22
422 5 22
461 15 23
230 13 4
107 5 16
21 16 16
422 9 16
390 13 19
77 9 15
23 9 22
43 1 11
256 16 25
55 12 11
31 8 9
460 7 13
144 12 27
398 13 21
366 9 28
412 9 5
369 2 11
465 15 18
87 6 9
339 5 0
405 7 26
242 6 7
378 9 13
466 10 3
435 4 3
327 1 1
149 6 4
293 1 16
464 12 11
289 12 9
336 7 17
78 2 2
290 10 13
44 16 10
479 7 1
499 12 25
232 0 1
480 5 15
338 4 7
323 14 9
176 1 27
238 10 1
368 16 16
13 15 17
75 0 20
147 14 3
48 12 9
365 1 15
221 13 23
446 14 21
155 11 0
351 12 19
178 1 26
47 9 17
223 13 26
495 5 24
437 9 8
236 12 17
18 16 10
236 2 13
438 3 12
297 10 22
26 4 1
327 2 22
261 14 13
220 7 6
45 2 25
496 15 21
396 9 22
221 8 22
111 1 2
152 10 21
123 9 14
481 15 19
101 10 28
121 5 11
189 10 27
100 12 21
3 15 9
445 7 16
39 2 22
398 8 4
453 12 3
473 2 4
45 8 2
328 1 19
245 10 20
32 12 19
247 14 5
380 2 13
199 3 22
156 7 25
298 14 8
479 10 17
334 12 14
410 1 3
366 2 10
16 13 12
463 1 9
38 9 24
444 9 10
274 16 2
437 9 5
225 6 18
85 15 3
114 0 27
378 10 9
436 6 22
223 7 24
456 9 25
392 2 5
403 3 3
392 8 23
158 8 28
350 13 13
446 2 20
230 9 26
76 0 7
479 0 24
448 10 9
327 6 28
170 7 12
97 13 24
444 16 14
67 7 10
178 4 8
484 13 12
379 10 27
267 15 18
476 8 13
481 6 5
231 14 16
13 0 21
396 7 19
42 11 3
336 6 0
243 10 5
377 8 5
109 10 7
337 14 26
235 13 16
454 15 19
254 10 5
342 10 16
291 9 25
229 15 17
224 4 5
487 0 11
30 14 9
71 4 16
92 5 0
214 13 19
331 5 20
430 0 26
373 0 24
219 1 14
89 0 2
279 9 7
86 1 13
135 14 20
75 13 2
309 14 28
356 2 14
153 10 5
306 11 13
139 8 10
287 10 5
384 9 0
476 0 24
426 16 11
458 16 8
430 1 10
105 16 8
371 10 9
14 2 23
215 4 25
195 9 1
275 8 14
463 11 24
290 13 5
308 11 26
381 10 9
387 2 14
403 2 17
108 13 3
396 7 1
447 10 1
322 6 8
28 16 26
202 14 24
129 3 12
436 8 11
346 0 20
386 11 26
353 12 23
362 11 23
99 14 13
341 11 6
162 14 6
368 2 24
357 9 0
331 5 11
348 7 23
46 7 27
31 11 5
26 16 27
480 6 19
329 5 15
6 3 22
127 12 12
459 9 10
23 5 23
0 16 18
365 13 19
297 9 8
191 9 4
206 15 22
220 5 20
495 0 15
326 9 19
368 10 9
411 14 12
486 8 5
387 13 16
81 4 22
246 8 9
245 9 28
392 6 8
238 11 10
129 5 26
295 5 21
388 3 23
154 7 9
77 7 15
460 8 2
245 10 24
33 11 15
273 12 14
340 16 13
341 9 20
73 8 20
279 11 9
114 9 3
335 2 23
111 6 0
170 6 6
388 11 27
354 15 9
365 11 27
470 6 11
453 3 8
26 14 20
414 12 21
405 11 6
414 1 24
446 6 11
226 8 25
88 5 13
313 15 9
251 0 12
138 14 3
419 14 15
442 4 26
147 15 7
331 0 6
60 9 1
233 2 11
312 10 17
450 1 14
8 15 2
168 1 2
259 1 2
189 0 22
387 0 9
338 6 22
347 11 19
219 6 4
231 15 0
361 4 19
269 1 10
21 0 20
125 10 11
12 12 6
447 8 24
289 2 20
224 15 14
52 0 16
422 7 16
171 6 24
277 1 25
345 6 13
426 9 21
286 15 9
417 5 17
495 2 14
448 7 17
46 8 26
94 13 22
363 16 21
258 12 0
443 0 11
165 16 16
418 0 16
444 12 26
94 15 6
274 1 22
49 14 14
160 0 16
468 0 16
275 11 16
48 2 10
417 0 11
307 0 26
78 1 19
124 11 2
337 3 23
441 15 19
446 7 12
421 3 19
478 13 13
254 13 20
343 0 6
136 8 13
380 13 19
238 0 2
119 14 2
478 15 0
197 15 11
155 16 10
404 10 7
306 3 3
322 6 8
491 15 12
217 14 27
429 13 1
108 12 0
473 8 14
426 14 6
170 13 22
350 0 16
75 2 10
314 0 24
413 12 14
378 12 22
48 8 4
139 16 25
498 13 15
175 14 20
133 6 6
191 8 5
427 4 20
125 11 26
257 4 25
478 6 11
492 0 23
53 2 12
120 2 26
307 6 13
47 11 12
400 9 6
206 10 8
130 8 21
273 8 10
469 6 25
395 8 27
177 11 0
423 3 24
314 13 25
454 12 8
493 16 11
135 4 14
470 7 15
329 2 3
153 1 6
55 9 7
335 0 26
268 5 22
29 10 10
98 6 4
163 9 27
451 16 24
113 15 22
356 10 6
229 14 11
407 10 27
39 12 14
224 10 9
361 16 2
130 13 28
54 13 16
492 16 16
166 10 21
445 8 6
328 2 5
234 4 8
389 12 18
277 8 5
96 3 19
2 15 11
478 3 14
113 0 19
288 12 6
386 3 27
48 9 7
85 4 27
384 15 18
204 9 12
72 16 6
183 4 26
385 9 5
149 4 10
231 13 7
303 6 3
410 10 9
378 12 1
4 9 28
377 4 23
47 7 24
152 2 7
196 5 13
36 5 24
223 14 23
234 11 20
206 5 20
312 10 12
464 5 8
417 6 14
2 14 21
76 0 13
63 6 16
153 6 8
366 13 12
471 3 25
290 0 27
370 12 23
92 11 7
271 6 15
388 7 10
224 16 11
476 8 8
207 1 14
257 6 3
132 15 15
34 3 20
413 8 17
316 3 23
48 11 0
19 11 7
285 0 16
188 8 27
103 7 5
428 0 10
174 12 20
465 2 26
328 16 26
330 13 27
443 0 25
422 0 12
308 5 14
452 3 17
56 4 4
210 11 15
246 0 6
97 14 24
492 9 12
141 5 24
43 1 5
83 11 24
385 2 26
336 8 4
112 7 8
33 11 19
449 8 3
109 14 19
288 5 24
457 13 20
330 7 25
104 7 3
300 8 6
193 7 13
194 1 20
310 8 14
412 10 4
402 10 6
453 11 5
218 3 5
463 5 21
452 7 11
167 10 11
497 6 18
150 1 22
110 10 2
298 11 15
203 14 5
34 15 2
140 2 13
88 13 4
147 15 14
370 8 13
480 4 9
496 14 24
187 13 8
497 14 22
333 6 3
210 2 8
321 14 27
114 2 13
109 12 26
419 8 16
89 11 7
453 15 24
295 12 9
113 3 24
427 12 12
423 9 16
441 7 14
352 10 12
213 8 9
460 9 16
86 7 0
13 4 16
402 8 19
445 7 16
73 4 9
203 16 0
252 2 5
150 0 25
317 1 19
115 1 2
279 9 19
324 5 16
219 16 18
241 8 13
190 15 12
140 7 7
65 13 11
491 12 3
183 9 25
364 8 11
325 8 13
368 2 7
122 9 28
209 10 4
448 15 7
495 9 28
217 0 24
486 9 6
343 11 9
418 10 5
468 4 13
271 14 7
349 1 24
200 13 19
259 14 2
451 8 4
167 8 21
495 15 26
102 1 3
114 2 20
300 8 8
374 1 15
171 13 10
383 16 19
213 0 20
330 13 13
383 7 19
437 13 19
23 15 9
486 11 17
404 0 0
53 2 14
167 15 19
185 1 17
94 0 5
153 1 20
127 13 4
241 12 8
19 0 1
460 12 9
384 2 21
272 9 16
289 11 6
482 11 11
459 12 2
146 0 24
108 15 0
186 1 17
441 15 4
215 9 20
39 13 13
325 16 26
114 13 23
113 15 4
120 11 19
35 15 12
349 7 4
42 3 0
91 11 19
415 13 18
99 13 24
84 10 14
104 11 19
449 8 17
427 15 8
197 4 6
436 9 16
250 10 0
155 12 16
193 13 7
341 13 16
211 6 11
317 8 17
101 14 9
273 15 18
314 15 4
234 11 26
463 12 25
401 5 10
424 9 25
173 7 19
229 3 20
387 8 22
68 16 25
135 13 8
24 1 22
91 16 1
276 13 26
494 16 16
226 12 25
432 0 11
234 11 14
289 7 0
369 16 6
317 15 23
83 5 10
117 13 9
54 12 24
117 0 25
351 5 25
210 12 15
143 5 18
351 4 4
114 15 12
369 3 17
166 14 20
306 15 8
117 10 12
97 3 18
459 9 13
5 14 19
198 15 25
367 3 22
217 5 11
12 0 13
8 5 5
91 15 11
244 10 15
208 0 1
109 4 12
489 3 6
301 5 8
309 8 11
189 0 3
189 0 25
122 2 2
492 6 3
241 4 10
482 3 4
223 14 1
146 9 21
190 2 4
321 1 21
326 4 12
383 13 20
52 11 22
245 6 5
297 6 13
61 9 2
376 5 18
69 12 18
135 3 27
201 8 8
298 10 10
255 11 6
186 8 5
315 9 26
195 4 16
60 1 7
356 16 22
263 15 11
46 0 25
152 7 10
259 7 0
417 5 16
204 12 2
499 11 17
318 9 2
492 13 0
467 4 2
490 13 12
493 1 17
68 12 24
380 14 26
366 13 13
421 16 26
435 9 10
413 5 5
129 16 22
393 1 23
2 9 13
209 13 27
275 10 10
191 3 14
185 5 5
272 13 28
292 9 2
457 11 15
239 9 14
61 11 23
474 12 21
388 1 5
211 5 4
104 15 12
279 11 26
159 5 8
239 5 9
340 0 15
17 8 12
129 9 0
94 2 15
63 0 24
337 13 6
474 3 5
473 11 20
422 1 8
79 3 14
55 7 18
167 4 13
96 6 24
177 12 14
426 5 15
382 10 8
367 3 3
440 3 9
19 3 1
63 8 1
426 2 8
162 13 24
176 15 25
264 1 15
420 5 28
115 14 4
313 3 21
170 8 13
310 13 18
141 14 21
132 15 26
47 6 16
287 6 10
145 9 19
419 6 12
490 6 16
88 13 26
443 7 24
95 0 16
483 10 25
195 5 16
41 7 7
299 16 10
407 5 15
7 10 5
24 1 9
436 2 27
242 4 27
231 15 16
391 15 5
209 11 7
361 7 9
324 16 21
276 10 6
308 7 21
411 5 5
470 14 3
117 13 14
51 4 15
423 8 20
200 11 13
486 9 14
379 14 4
401 4 15
370 11 0
386 1 22
251 5 18
283 12 15
362 5 12
458 6 28
105 14 12
265 7 24
464 12 7
188 13 21
169 5 6
144 12 9
58 10 6
282 4 3
35 4 24
413 15 4
319 13 9
58 2 17
44 1 16
14 10 1
288 0 18
270 8 9
137 12 18
238 1 22
292 11 16
464 11 6
466 7 2
416 14 14
315 10 9
39 1 19
171 7 25
153 10 0
47 2 18
345 4 4
381 9 20
494 7 20
458 0 11
257 8 19
76 14 15
23 4 1
375 7 26
305 5 13
127 12 14
31 2 22
171 6 5
40 5 13
403 0 16
14 15 5
279 16 1
470 6 9
3 14 5
375 10 1
397 13 7
8 3 17
269 8 0
345 6 11
348 16 20
495 15 13
366 9 3
261 12 17
205 10 28
1 11 16
350 12 11
441 15 6
407 5 27
227 3 12
260 2 14
55 0 26
211 13 21
441 15 4
397 9 19
498 10 24
459 6 7
30 9 17
80 16 23
387 15 0
275 13 24
360 0 25
293 12 27
455 7 20
393 13 4
260 16 6
262 5 4
207 4 25
488 4 18
80 13 21
129 11 13
368 14 5
484 16 2
397 8 26
7 11 16
233 2 2
429 0 14
50 3 8
328 8 16
193 9 23
174 16 10
342 3 5
37 5 18
313 1 24
211 4 7
339 0 5
280 14 18
472 7 16
128 5 4
354 8 25
381 2 1
194 15 12
307 12 7
285 14 19
26 2 8
432 10 24
74 2 14
160 7 7
190 14 5
191 8 20
156 16 23
302 9 24
464 3 14
484 4 5
430 8 11
211 16 22
88 7 20
270 8 1
52 1 14
340 4 25
87 2 20
127 14 25
204 7 26
96 6 4
54 0 14
30 5 22
307 8 19
5 10 20
254 8 7
267 1 16
176 14 19
116 11 16
326 13 9
97 12 16
211 7 26
333 2 27
495 14 15
434 7 6
370 0 22
7 4 9
352 12 22
420 5 13
255 2 19
217 16 9
339 8 20
407 16 12
297 4 13
329 7 27
256 16 1
476 0 28
147 2 25
3 6 2
179 15 21
249 16 1
484 1 9
3 0 3
348 5 7
382 10 21
107 3 15
221 7 1
173 12 8
242 5 1
282 4 26
9 2 15
160 1 1
407 12 4
440 16 19
496 16 20
163 0 1
235 13 25
462 15 5
235 15 17
8 2 6
401 16 22
394 7 0
95 15 26
140 16 18
393 10 26
80 15 7
492 6 23
99 13 11
118 8 13
297 11 26
145 12 15
228 8 0
355 1 8
136 14 24
173 6 27
153 2 21
457 0 12
475 11 10
495 14 23
207 14 17
297 3 6
7 16 4
76 7 6
69 7 25
98 10 5
454 8 23
247 2 19
63 12 20
401 7 9
161 8 19
385 14 5
116 5 15
55 13 27
443 3 14
432 8 17
76 6 25
235 3 14
155 13 26
298 15 9
156 15 22
127 4 8
89 1 11
350 4 19
427 10 14
29 0 3
416 14 13
321 11 16
398 6 20
259 11 8
32 11 13
60 4 1
348 7 0
369 4 6
295 14 25
215 11 20
189 14 21
308 16 23
222 7 28
32 4 15
298 8 27
287 0 13
414 16 20
95 11 10
326 6 16
219 3 0
26 4 19
451 16 25
172 9 2
266 4 4
283 3 19
191 10 3
405 12 15
99 9 14
122 1 10
180 11 23
38 7 16
146 13 12
208 9 23
262 4 1
206 16 15
206 15 13
160 11 5
378 6 28
408 3 13
435 7 4
471 15 18
171 7 15
98 11 24
340 15 10
218 2 6
275 12 19
42 14 20
34 3 22
298 10 14
106 15 12
484 6 25
141 15 20
30 3 0
100 1 11
277 10 23
357 10 18
107 1 27
469 9 8
276 1 5
292 16 7
0 5 9
171 9 0
397 16 5
366 0 18
34 14 2
414 6 14
397 11 14
129 1 22
497 12 17
137 4 8
21 2 22
12 15 3
246 14 3
44 14 27
320 15 18
160 4 12
427 1 27
377 11 12
38 11 11
75 5 1
26 5 24
262 1 21
132 6 23
486 10 12
95 16 25
56 11 5
58 15 21
418 8 22
152 6 7
283 6 16
138 7 18
130 15 1
336 9 4
338 1 8
406 14 23
143 7 16
47 14 6
295 6 1
484 4 15
274 15 20
437 6 22
251 2 25
140 6 24
155 6 2
210 2 6
283 8 19
324 13 24
398 7 23
341 12 1
215 15 24
102 14 0
132 12 19
441 16 5
7 13 23
8 7 13
330 3 10
121 3 13
222 14 18
4 15 15
401 8 8
327 14 7
133 4 8
310 8 27
201 7 14
249 9 3
170 5 9
41 7 11
217 8 14
30 0 19
24 8 28
178 7 10
300 16 16
136 13 19
359 10 2
36 4 17
458 0 0
341 5 27
191 9 1
26 1 13
349 7 13
458 13 19
142 3 25
116 14 1
215 11 9
20 1 19
386 10 4
44 7 20
167 14 9
266 2 27
225 0 13
422 5 24
292 11 24
424 15 22
371 13 8
54 9 15
255 1 10
369 4 26
134 1 21
347 13 13
118 12 5
404 3 18
325 3 17
384 15 14
282 3 6
3 11 1
331 5 14
305 6 28
55 3 25
494 6 10
421 11 0
285 0 22
471 2 16
286 14 13
489 15 7
38 13 13
123 4 9
373 6 27
48 1 11
367 5 5
400 9 24
445 9 8
422 16 19
442 0 10
122 6 4
115 0 22
202 2 1
77 4 0
210 2 21
331 11 16
174 14 28
437 13 27
165 5 23
218 9 27
20 13 11
202 5 7
207 10 11
209 6 20
259 8 2
360 8 26
118 12 13
410 9 23
477 1 1
408 5 7
387 12 13
340 14 11
62 3 17
391 10 22
445 9 7
242 14 13
242 15 8
301 14 8
352 12 5
332 13 12
395 8 18
12 3 23
455 8 22
459 5 10
182 1 17
33 14 9
144 10 23
279 14 14
210 1 7
498 13 12
465 10 1
158 8 0
34 10 23
428 4 18
478 5 10
180 13 4
463 6 1
435 9 10
358 16 20
213 9 19
217 6 6
144 0 21
384 4 23
142 8 25
144 2 9
271 14 0
57 6 7
2 15 5
317 12 16
364 16 5
255 15 8
356 12 5
452 16 0
402 2 24
399 1 6
395 15 22
218 11 15
21 15 17
301 0 1
365 15 16
138 12 19
286 0 27
416 9 28
38 13 27
393 1 11
53 3 12
409 10 6
102 6 27
491 9 1
84 12 8
26 8 7
410 1 16
348 14 6
191 14 8
412 7 9
224 12 20
495 6 18
344 13 21
128 10 27
162 4 23
227 1 3
269 6 24
257 9 23
208 16 5
129 12 23
202 6 7
98 14 2
246 10 10
69 12 3
83 7 8
88 9 2
248 2 0
331 12 3
125 6 28
204 4 4
310 10 12
226 10 24
264 11 5
232 16 20
417 3 12
117 16 28
183 6 20
412 4 27
388 12 2
430 2 7
188 12 4
86 6 1
122 11 0
352 6 18
346 7 0
112 14 10
363 15 17
24 12 25
426 12 27
421 9 2
333 9 2
187 9 12
321 10 23
237 10 21
217 0 19
345 7 1
210 0 3
79 1 21
95 12 12
140 11 10
413 7 19
304 8 17
55 7 24
262 10 25
441 2 8
90 14 8
326 15 26
339 10 3
427 2 18
345 13 12
420 14 5
375 9 4
225 4 0
186 2 4
385 5 10
428 7 5
84 8 10
253 11 27
378 4 15
366 4 24
440 13 27
222 11 5
436 2 8
115 9 13
489 13 5
39 15 18
396 12 10
8 9 19
335 10 1
8 0 2
83 2 23
389 16 26
117 9 16
480 2 22
489 16 7
332 8 8
162 15 24
42 1 2
286 12 16
386 0 0
330 12 1
191 13 9
160 8 22
444 13 7
331 4 18
154 3 0
65 14 21
412 9 1
434 4 26
87 9 18
114 16 4
7 8 3
109 2 2
51 16 25
480 0 6
128 14 26
258 0 6
266 5 4
254 1 5
372 6 28
339 10 8
275 9 10
393 13 16
383 12 5
272 9 22
286 13 16
459 5 6
369 13 27
199 7 19
59 6 28
14 6 11
209 12 18
229 2 0
358 8 6
147 12 28
253 2 16
485 3 5
96 13 8
225 8 12
470 9 22
344 16 6
435 15 24
111 1 19
307 0 25
428 6 9
213 11 17
183 16 1
167 1 4
499 10 21
219 1 16
145 2 5
101 10 12
46 16 10
445 8 0
217 4 14
401 15 11
487 5 25
64 16 10
446 16 2
406 14 24
20 16 11
28 14 15
485 3 11
490 12 3
280 10 17
292 9 20
299 7 1
267 7 18
109 15 1
285 11 20
433 10 6
245 16 20
330 5 14
410 15 11
39 15 28
226 11 11
88 0 14
424 0 15
25 7 0
400 0 23
402 3 14
239 11 4
306 0 9
213 9 2
226 15 0
246 2 20
252 1 22
197 3 17
439 2 0
445 2 0
65 11 23
81 4 0
288 12 12
250 9 1
429 4 10
133 3 3
460 7 24
477 13 5
420 2 13
303 15 16
71 12 25
155 7 9
269 9 6
356 1 3
481 15 8
412 12 18
206 3 15
325 1 28
475 8 1
319 8 16
241 6 1
222 12 24
479 7 9
205 1 5
356 8 26
76 1 19
96 3 8
69 10 8
206 0 27
6 0 19
376 3 24
350 11 20
60 8 25
130 8 16
360 0 27
439 14 12
336 16 2
273 10 14
64 5 24
438 12 6
196 8 19
31 6 1
185 6 16
305 2 10
316 14 26
399 0 28
455 13 23
131 6 7
47 14 14
268 0 0
168 4 10
443 12 6
324 6 4
253 9 16
61 5 3
36 9 22
297 3 8
409 7 10
315 3 14
472 9 23
292 13 28
35 10 8
115 3 15
488 12 7
312 14 15
392 0 19
291 15 25
222 0 12
454 8 3
268 10 13
210 16 19
238 0 4
196 11 11
471 3 11
209 1 8
499 9 5
168 0 6
446 10 6
479 0 19
47 12 13
134 5 20
319 6 0
446 13 12
256 6 24
25 9 3
342 2 18
302 16 19
190 13 2
15 10 27
284 9 0
491 9 6
173 5 16
232 4 7
471 16 0
46 12 21
358 8 23
332 8 19
308 7 19
329 9 25
144 11 10
288 7 0
204 4 17
336 6 14
478 14 9
371 14 14
496 3 12
347 9 14
164 0 12
427 12 13
46 8 14
353 2 2
428 11 28
171 2 13
344 14 15
278 5 2
134 5 9
354 10 18
63 4 0
173 12 25
162 15 5
277 0 15
123 11 1
175 5 6
59 14 0
257 6 13
476 13 5
128 0 18
248 14 0
266 8 21
419 3 24
419 0 13
160 8 9
100 2 4
395 13 22
198 14 12
301 12 2
55 16 25
329 13 17
248 13 27
392 10 26
199 11 8
224 16 9
446 8 22
330 14 24
493 6 27
312 3 6
332 2 27
365 10 12
77 14 9
217 2 28
468 3 18
489 6 3
234 10 24
202 12 10
364 3 18
176 14 22
104 1 21
188 10 28
388 15 28
234 13 26
391 4 25
370 16 20
199 4 22
141 6 2
413 6 24
378 12 4
375 11 17
385 10 18
465 15 18
45 13 27
7 8 15
436 1 19
103 11 22
483 4 2
196 1 25
100 14 18
69 5 22
291 5 23
469 9 9
152 5 14
220 3 19
331 2 4
299 0 25
245 1 24
420 4 22
146 2 16
0 2 24
238 7 23
18 8 19
223 11 12
427 0 27
182 1 2
117 8 24
405 4 19
6 6 25
371 3 5
3 10 7
420 13 9
265 8 5
452 13 7
202 4 2
71 10 0
164 10 16
219 11 26
262 8 12
301 4 26
114 10 6
374 2 11
2 10 10
454 0 1
248 13 11
111 14 17
64 0 28
159 15 14
100 4 13
45 4 10
250 14 11
433 12 22
471 12 12
121 9 2
252 12 2
172 1 11
415 13 7
247 6 14
487 5 2
372 11 11
367 3 13
51 1 22
408 12 12
14 1 3
87 2 10
258 0 3
248 7 16
185 3 0
204 10 15
322 5 2
309 3 1
133 11 25
279 8 28
75 2 16
27 4 18
71 2 25
421 15 0
273 9 17
151 6 18
182 6 7
124 1 10
41 10 15
25 15 27
392 16 19
109 15 9
365 12 28
68 1 9
104 11 15
92 1 6
372 4 17
179 1 18
218 14 14
10 10 3
291 6 21
423 7 11
377 16 21
379 11 9
101 5 8
468 12 18
18 15 18
57 8 6
493 11 23
383 12 26
411 14 22
341 15 26
418 1 2
10 8 6
17 10 5
436 0 24
83 1 26
278 14 20
106 13 2
446 13 15
425 2 5
425 16 22
204 12 17
193 0 18
176 3 27
234 13 2
64 15 9
267 13 17
292 2 9
0 7 6
493 6 22
355 8 2
121 6 19
98 13 27
455 15 20
1 3 8
318 4 25
112 5 26
51 12 7
99 9 18
145 16 25
132 4 19
43 2 7
21 11 9
404 2 9
451 0 12
269 3 2
437 4 8
401 1 22
1 12 7
366 10 25
460 16 27
428 5 4
17 3 9
400 9 10
445 16 23
422 11 19
27 6 12
74 3 2
322 3 17
27 6 0
392 9 3
349 15 28
18 9 12
479 10 26
244 8 24
421 13 24
132 3 14
284 12 25
309 0 7
117 1 22
151 11 3
352 1 11
213 15 10
414 6 24
111 5 0
326 4 2
485 12 4
402 15 17
261 10 16
498 6 2
134 10 7
122 8 25
380 7 15
321 15 5
246 13 7
366 5 13
36 1 16
135 11 0
232 2 25
132 11 0
208 9 3
389 4 12
431 11 10
39 1 2
310 10 27
222 14 12
429 16 21
172 12 10
273 5 3
414 15 9
75 11 17
400 0 18
480 2 5
355 9 16
287 16 10
386 5 24
470 0 8
263 8 20
377 15 26
97 9 28
444 0 17
63 1 13
248 0 15
260 7 21
242 1 10
412 3 28
444 11 10
336 9 24
78 1 23
13 4 2
141 13 7
211 3 2
445 10 12
479 15 25
323 9 15
418 9 0
238 5 6
118 14 26
478 16 4
334 2 21
242 5 13
162 8 2
306 14 28
437 15 27
297 12 21
57 9 24
27 13 14
296 9 11
30 13 26
86 10 24
25 4 25
133 2 12
214 7 2
196 3 5
174 12 22
393 13 9
401 3 12
49 13 6
324 9 14
397 4 5
131 3 22
416 2 5
54 14 23
264 5 2
126 16 10
184 4 0
408 4 25
441 1 24
3 6 18
351 9 23
474 16 14
259 10 23
181 4 24
20 10 3
281 0 20
116 14 9
260 9 25
27 14 25
112 12 28
459 5 13
294 4 8
453 5 22
462 10 27
392 10 11
496 11 15
413 1 7
498 4 17
362 0 26
32 1 21
120 10 13
482 0 21
488 15 17
201 2 28
370 13 23
278 0 5
219 9 19
413 14 7
184 5 2
159 1 10
166 5 20
4 4 8
18 1 6
258 1 1
24 1 21
50 7 13
21 10 6
163 6 3
176 5 27
470 5 26
497 15 14
227 5 11
165 10 26
333 13 7
313 3 2
352 5 15
357 15 5
411 10 5
142 3 11
65 13 16
233 14 1
132 5 10
52 1 9
396 8 8
398 8 25
236 0 3
63 2 18
131 3 13
479 16 9
37 3 28
446 13 17
183 12 12
252 16 24
332 10 1
130 11 27
431 14 1
434 12 0
131 3 19
234 6 5
497 0 21
207 5 19
476 2 14
362 13 22
69 2 20
184 5 8
290 6 5
401 13 24
491 15 22
114 16 11
272 0 2
227 16 1
478 14 28
300 8 18
16 12 9
309 0 8
429 3 13
270 11 10
132 6 7
349 14 18
434 1 1
426 10 9
301 11 26
227 7 21
217 4 9
461 13 13
276 16 17
112 12 15
347 8 16
21 16 13
24 3 22
270 2 22
211 14 5
153 7 24
270 9 16
182 4 27
339 14 9
258 15 3
377 13 27
244 8 19
310 5 11
349 14 15
91 10 27
426 3 9
98 12 4
81 1 26
321 4 21
396 9 25
324 4 20
97 6 27
231 4 18
245 3 24
20 12 21
417 1 22
78 11 27
71 13 28
133 15 25
154 9 0
319 11 8
305 12 4
122 13 16
42 8 6
152 5 2
278 7 19
117 9 7
307 13 12
291 9 7
182 10 14
247 2 0
108 12 19
377 8 27
157 8 14
372 14 22
351 8 9
74 0 10
410 12 0
44 4 8
323 6 13
4 2 19
356 4 14
210 9 20
224 5 2
317 3 24
431 3 17
228 1 22
286 15 18
312 2 14
314 6 7
436 6 14
296 16 26
140 4 9
461 5 22
129 1 27
482 5 21
257 9 0
446 6 16
407 13 26
315 14 26
422 10 0
251 16 1
13 14 25
433 15 1
144 10 3
245 0 24
371 1 0
9 16 12
122 0 17
264 8 19
190 12 12
498 2 3
342 13 7
273 2 14
95 13 4
347 7 26
122 1 19
254 6 12
404 5 20
343 4 21
16 15 13
78 8 2
262 12 9
452 14 19
111 16 18
247 5 0
496 4 12
52 10 23
400 3 25
2 5 28
158 14 6
173 13 12
493 10 15
439 15 15
361 14 14
405 5 6
102 2 25
399 2 16
138 14 20
314 4 20
331 1 22
488 10 15
173 4 15
307 8 4
433 12 17
268 7 7
374 8 27
13 7 1
323 5 5
222 16 1
404 9 16
377 3 18
273 7 9
278 7 7
381 4 1
289 16 26
303 3 28
247 12 5
113 15 20
190 16 18
465 11 2
210 0 16
330 0 11
231 3 19
277 16 21
465 11 28
25 1 23
175 9 26
244 7 4
303 13 1
133 7 5
359 8 1
494 13 20
496 5 14
383 4 13
174 13 1
194 14 24
1 15 0
321 1 4
123 6 20
42 12 21
9 14 9
90 0 21
150 7 22
237 15 0
113 5 5
196 9 3
75 2 9
479 3 22
454 9 9
125 0 8
59 1 16
154 10 0
377 11 23
264 6 22
190 3 26
494 8 26
207 5 18
247 10 3
371 1 23
134 16 13
427 13 1
449 7 12
338 12 12
96 10 0
115 2 6
470 15 26
252 13 21
364 2 4
172 12 0
96 13 27
426 15 19
345 10 27
453 7 13
332 1 28
403 9 13
134 2 28
76 3 17
243 11 15
181 4 18
100 3 7
280 0 5
436 5 17
50 16 14
490 16 2
347 14 3
185 11 25
99 7 27
308 7 14
212 5 0
276 9 4
95 16 7
408 9 21
32 15 26
314 11 0
49 16 25
322 0 1
88 8 1
342 15 15
420 4 10
0 12 20
20 6 14
238 10 17
27 4 10
246 13 20
54 16 21
9 3 13
353 14 20
258 12 7
445 16 23
189 14 27
79 0 20
321 6 14
47 8 5
208 0 0
281 16 12
318 11 21
2 8 28
202 12 9
364 1 6
331 9 8
186 15 22
370 2 1
428 3 15
270 16 14
168 11 9
88 7 5
387 6 14
48 7 28
69 1 0
164 8 24
284 8 13
482 2 18
324 12 16
174 8 17
379 16 20
202 6 3
479 3 19
7 12 20
193 5 15
473 16 9
291 8 12
335 13 19
342 7 13
492 14 5
494 9 14
358 16 19
96 10 26
301 1 11
267 0 21
305 16 25
239 14 21
118 0 8
3 15 23
292 9 7
427 7 21
495 8 20
172 11 13
263 4 23
352 1 16
347 3 19
129 13 24
359 9 7
176 15 26
9 15 6
399 2 9
209 16 16
288 5 7
116 1 18
57 8 1
220 5 20
94 13 17
216 14 6
470 7 19
117 7 18
145 5 24
159 12 25
273 12 27
65 9 21
64 13 17
423 11 15
101 1 21
367 14 14
331 13 2
168 7 22
200 15 6
317 3 19
125 2 23
429 5 28
172 5 26
464 16 10
45 3 8
488 10 24
252 8 0
109 9 1
154 3 26
100 15 18
102 4 23
33 12 5
411 16 3
337 16 25
282 16 21
49 10 21
201 15 15
492 16 12
130 7 3
99 0 13
263 9 28
62 16 26
449 15 2
264 11 5
482 9 20
489 0 17
6 14 6
144 8 5
97 13 11
429 15 10
477 15 6
224 9 17
31 10 12
487 2 8
86 14 23
450 14 1
169 14 2
435 16 24
335 7 18
352 8 12
4 6 26
94 1 2
328 2 1
220 0 11
257 2 0
158 10 23
312 5 27
404 5 16
138 16 20
376 14 1
207 15 23
482 4 9
76 0 28
139 11 10
2 15 4
147 16 25
375 4 16
124 1 3
21 14 12
275 16 6
347 15 11
292 0 23
199 13 11
303 0 20
133 12 5
156 8 5
117 7 19
110 7 19
25 4 10
346 7 28
191 12 17
284 15 14
236 10 23
152 12 25
11 5 0
223 1 4
186 9 4
319 1 18
468 15 27
202 3 8
4 2 11
16 7 18
426 4 7
99 0 4
63 11 3
21 11 28
327 15 3
164 9 17
492 9 28
272 15 16
226 16 16
282 1 25
243 16 11
94 11 6
395 15 10
348 4 1
393 4 15
493 9 22
262 4 12
470 8 19
21 8 18
77 3 3
47 13 13
360 0 5
91 8 21
254 4 7
125 9 16
382 14 18
411 7 13
3 13 24
236 11 9
368 3 12
376 5 18
128 10 7
302 13 13
413 11 11
304 8 19
34 15 12
232 0 19
24 2 1
310 5 0
200 13 14
236 9 21
70 8 18
296 3 8
116 6 28
258 5 1
165 16 1
250 13 18
123 3 19
303 2 17
186 4 1
163 15 14
175 6 2
41 2 14
292 9 10
32 13 5
200 5 13
181 3 17
418 4 5
494 9 8
342 11 3
267 4 24
335 4 25
307 2 9
498 14 14
137 10 22
24 12 6
483 5 0
201 4 2
439 11 3
193 16 21
32 11 2
492 3 12
210 4 1
426 12 4
373 7 15
86 0 19
145 12 17
65 13 16
121 9 15
245 0 26
314 0 0
47 5 17
60 9 18
388 1 8
229 9 17
51 14 22
252 7 0
112 11 24
232 14 27
434 15 5
352 4 20
408 2 15
374 15 12
44 5 25
326 16 4
484 6 14
24 13 3
162 3 12
384 3 17
240 8 0
84 5 15
395 15 4
87 1 26
55 13 27
344 2 16
20 1 4
187 14 6
177 16 4
76 8 6
367 10 24
398 11 4
125 6 4
157 10 1
475 7 19
421 12 23
154 4 1
79 11 14
364 14 2
167 14 9
431 7 20
366 8 9
416 4 7
250 4 7
224 16 7
36 10 6
444 10 5
438 1 20
14 16 25
344 5 22
191 4 13
392 1 0
64 6 5
218 9 20
112 7 16
133 4 16
116 8 16
372 13 7
406 13 16
308 5 26
6 16 18
238 9 14
400 5 14
451 14 6
101 3 15
482 9 14
25 14 7
58 11 24
109 16 10
473 9 15
217 15 23
423 10 19
417 14 9
215 10 15
235 11 3
307 14 3
255 7 26
394 14 17
490 3 23
127 6 10
86 6 21
269 15 15
106 9 10
495 0 24
280 10 6
305 3 2
83 10 8
52 1 13
221 6 25
67 15 2
19 12 12
153 2 24
137 5 14
479 9 3
498 15 16
125 12 6
81 3 20
230 6 17
385 16 28
384 11 17
84 1 1
207 4 23
353 3 10
391 7 22
154 4 2
446 16 5
143 5 18
493 15 0
411 5 7
256 13 3
147 8 6
351 9 7
267 14 23
256 6 17
38 16 24
282 16 22
193 14 15
224 2 25
306 16 11
453 13 9
237 12 15
245 15 27
177 13 26
494 2 21
79 12 12
312 12 27
4 7 11
242 11 15
44 14 23
129 8 1
375 12 4
414 15 3
106 9 18
492 0 1
273 6 3
169 9 24
42 7 10
267 13 26
275 2 22
129 13 8
48 13 10
90 4 16
387 12 7
46 2 14
196 7 6
56 5 20
248 13 7
444 16 17
301 12 9
267 7 27
36 11 26
172 16 4
351 1 3
255 5 19
83 9 10
452 10 1
285 6 10
415 0 5
270 16 23
102 13 10
39 3 15
198 3 1
450 3 19
264 13 13
395 3 13
453 3 22
237 9 5
80 4 8
306 2 14
424 11 9
148 16 21
387 4 23
470 8 15
31 13 25
190 6 5
124 6 26
82 12 20
205 3 27
131 9 17
272 1 5
298 13 16
140 4 24
285 8 20
273 4 10
71 2 7
490 4 3
320 9 6
2 9 18
155 15 15
129 15 2
154 13 0
480 16 21
183 1 3
244 12 4
195 16 2
152 8 21
369 13 18
129 6 4
262 10 21
176 3 26
487 8 25
204 10 27
163 7 21
293 12 1
421 8 11
379 7 6
44 15 18
474 3 5
204 4 11
31 8 26
214 3 14
159 6 12
74 9 28
465 15 26
326 13 17
43 11 19
225 13 17
380 1 0
356 0 3
468 3 0
33 4 11
460 10 5
23 3 16
128 13 14
167 0 6
363 1 12
330 13 18
398 7 4
140 1 0
471 1 2
122 14 21
234 4 24
448 11 27
430 15 7
104 15 8
223 2 2
95 6 23
95 0 0
443 16 18
461 8 24
411 2 2
149 6 18
159 16 6
102 15 10
213 8 1
276 16 1
185 8 7
499 9 2
462 2 23
394 11 2
41 1 21
27 8 9
209 1 20
77 16 7
250 8 12
274 13 9
249 4 3
440 6 12
205 13 4
422 16 2
15 12 5
347 2 3
349 5 1
258 11 16
373 3 2
468 6 21
138 13 25
403 14 15
129 2 25
305 14 22
391 2 16
428 12 5
123 2 27
464 0 17
259 5 20
197 13 2
496 1 0
22 16 0
150 0 7
383 7 0
249 8 16
40 3 28
107 12 1
208 15 5
418 6 13
314 6 4
219 3 27
124 16 21
261 11 14
151 6 3
307 7 2
247 5 24
496 8 16
38 9 17
235 7 13
479 13 23
266 12 21
219 3 21
312 2 6
414 12 17
105 3 28
302 16 8
399 3 6
191 4 13
331 14 22
169 10 22
439 3 14
143 1 20
398 10 27
66 11 6
265 8 1
164 1 2
376 5 16
366 4 10
170 13 1
391 4 25
341 7 27
167 16 1
318 13 26
360 7 1
102 14 20
457 14 25
252 10 17
496 15 25
283 15 8
238 6 13
327 6 17
354 6 19
451 1 10
126 14 17
60 16 6
186 4 2
53 8 23
38 0 17
486 15 24
47 2 17
94 7 24
249 0 16
258 14 23
238 16 15
90 8 16
184 16 19
333 9 1
38 10 9
451 7 15
458 14 22
228 12 25
306 1 6
104 4 20
300 8 7
446 14 12
139 13 13
242 4 12
112 8 17
290 6 13
397 3 22
268 8 8
57 13 13
431 13 1
65 5 18
72 6 12
170 6 19
196 16 24
1 7 9
445 6 8
133 7 24
179 4 28
267 3 13
44 14 26
474 1 23
408 13 12
385 9 24
437 16 12
68 15 7
412 6 11
425 6 3
405 12 4
443 6 22
163 2 25
38 4 16
277 2 15
37 5 9
9 2 0
96 9 26
223 14 0
158 13 19
306 3 2
275 8 2
40 14 6
17 2 27
111 16 6
25 15 12
93 14 11
370 16 4
417 12 5
493 10 8
200 11 16
369 0 11
12 1 17
100 1 19
381 12 8
407 10 23
215 15 24
86 16 2
2 4 26
323 10 12
321 14 9
475 0 4
487 4 5
484 9 23
238 2 14
21 5 28
377 14 14
369 7 28
419 5 18
344 16 7
155 5 6
424 3 22
314 14 13
60 3 16
384 7 17
56 16 2
189 13 13
368 10 3
301 0 23
287 6 8
304 12 15
147 14 14
183 10 4
194 8 25
27 9 2
268 1 22
376 6 23
397 1 9
134 6 5
446 7 19
40 10 1
468 8 11
134 4 22
62 5 10
268 7 12
285 10 8
100 16 8
41 3 28
366 11 27
449 10 6
98 5 15
469 16 3
221 3 12
31 0 5
463 7 9
282 14 26
277 9 16
24 14 17
244 9 28
460 3 4
299 8 3
17 13 6
320 4 8
301 10 0
202 15 20
218 0 2
274 13 6
475 7 0
371 15 22
83 3 16
256 12 7
172 2 5
4 2 20
435 16 2
187 11 21
289 8 3
137 12 17
89 1 19
279 7 0
235 7 19
150 4 13
96 1 3
476 16 13
36 7 0
171 9 13
387 9 18
36 7 28
73 13 28
396 12 4
187 10 2
114 6 26
389 11 8
13 4 26
199 10 2
312 6 0
143 15 16
12 13 7
217 8 0
312 14 2
398 16 16
279 0 0
393 3 6
305 13 10
71 4 8
42 16 14
73 10 3
68 8 27
484 15 3
305 15 14
177 15 7
187 5 15
94 0 24
83 13 27
290 13 1
488 5 15
87 14 5
328 4 18
191 13 6
446 10 11
166 8 21
109 3 2
224 3 19
392 12 6
472 5 16
190 5 21
9 14 26
7 15 12
213 5 10
314 14 1
128 7 24
206 3 7
191 7 11
81 3 27
46 9 10
135 13 17
51 0 19
494 1 22
142 3 22
129 15 4
201 4 7
304 14 27
371 6 9
119 3 24
457 9 21
462 14 14
179 5 17
79 7 4
139 8 24
85 14 25
429 13 15
241 1 6
396 7 4
482 3 25
229 10 10
433 15 23
252 11 12
396 16 3
162 10 22
18 12 9
402 13 8
252 3 16
57 16 28
30 1 19
484 2 8
330 9 12
47 4 16
236 4 18
125 11 3
401 9 21
318 10 2
474 11 27
221 8 27
486 13 21
31 4 4
254 8 3
18 0 6
29 8 16
73 15 14
203 7 7
186 8 25
403 10 14
377 7 18
100 3 19
200 2 9
276 1 22
208 0 20
346 8 14
498 10 16
17 12 18
413 12 17
339 5 19
455 16 20
417 4 18
268 15 2
365 0 18
387 7 26
148 16 23
192 9 25
228 16 23
403 7 14
493 5 7
190 13 22
469 15 22
52 13 22
20 16 20
55 10 26
152 7 19
321 16 22
474 4 21
445 7 20
318 10 2
199 10 3
317 8 14
99 7 0
337 12 18
116 1 11
447 16 26
84 14 1
1 14 26
208 4 0
261 3 25
54 2 9
347 1 17
465 14 17
346 2 8
195 12 26
300 7 24
481 2 18
229 16 1
66 5 23
367 1 1
101 9 22
202 4 28
262 16 7
237 10 0
430 10 20
401 0 21
382 1 22
257 2 26
260 8 12
429 1 0
434 6 10
394 3 8
125 7 4
429 2 5
451 9 18
396 13 18
284 14 16
146 16 28
191 9 12
23 15 18
103 14 7
153 7 14
420 6 23
303 5 10
380 0 17
20 4 23
431 7 13
432 0 11
329 1 23
337 13 16
41 8 6
39 2 28
34 6 27
149 5 12
452 6 19
157 1 26
314 12 2
439 10 19
488 6 24
396 6 11
84 4 22
474 6 15
342 15 25
406 10 26
388 7 12
413 15 16
75 4 26
357 14 25
445 14 6
218 2 19
279 12 16
297 1 3
133 1 26
42 7 2
381 3 27
348 16 10
497 11 23
364 7 23
237 14 0
367 6 23
468 12 14
305 7 8
281 12 14
264 0 23
119 1 3
154 3 21
90 9 24
367 7 19
393 2 14
268 13 11
391 16 5
277 15 24
390 5 28
133 0 23
135 13 22
337 5 12
389 11 7
13 14 2
404 0 19
431 8 4
442 12 21
207 11 6
13 2 25
464 7 20
474 13 1
96 8 7
347 16 13
10 0 2
465 6 27
251 1 3
35 3 27
216 4 27
410 5 20
37 10 19
238 12 15
194 12 13
373 2 14
233 13 27
423 0 9
263 3 7
80 1 27
340 10 23
144 6 22
493 5 3
130 4 23
375 5 15
445 8 25
181 14 17
5 0 20
43 13 19
158 4 7
461 15 26
219 1 15
349 7 23
469 11 15
425 10 18
27 2 1
302 2 20
270 3 2
196 2 7
285 4 8
499 16 24
414 9 26
100 9 1
147 16 2
8 10 19
151 0 17
116 15 12
419 13 10
93 12 20
110 9 9
499 9 19
17 1 19
429 8 24
343 12 18
19 16 7
104 5 19
115 1 20
65 1 3
434 13 19
89 2 20
388 2 24
348 1 12
425 7 6
323 7 5
77 7 7
140 7 9
336 13 1
423 10 17
469 1 3
137 15 16
198 14 20
311 16 23
369 5 11
125 10 20
147 1 24
145 5 9
263 9 23
52 1 11
447 3 26
476 5 28
142 11 17
225 15 22
487 3 20
70 16 8
129 16 10
120 9 18
212 0 9
467 1 11
214 8 17
454 3 19
106 15 8
472 9 0
2 1 15
274 11 11
433 13 25
400 7 9
18 8 7
431 9 24
114 12 27
16 13 21
226 4 3
477 9 15
190 8 9
246 12 25
70 15 10
83 9 10
493 15 9
348 1 24
416 3 1
259 1 4
238 14 19
370 3 22
478 5 25
256 3 10
395 8 1
333 13 22
352 14 10
148 9 19
314 10 18
223 13 15
477 4 21
235 4 27
210 15 10
459 5 6
412 9 9
23 1 24
226 1 6
200 10 19
495 9 5
162 6 8
430 13 7
389 11 24
22 13 12
357 15 16
229 5 7
146 2 15
254 14 20
367 5 3
283 1 28
176 8 23
153 1 27
379 6 15
174 5 5
23 12 9
398 4 16
105 8 11
150 5 9
127 14 9
334 0 23
140 2 15
446 7 17
228 1 3
154 7 26
194 4 15
270 12 10
335 8 21
212 0 5
473 1 25
180 10 7
73 11 28
27 7 5
67 5 18
217 16 21
350 7 15
126 15 23
381 2 6
254 6 21
419 7 13
20 12 15
223 8 11
167 11 18
24 11 11
229 4 15
311 16 17
70 6 15
464 5 2
392 16 13
88 2 27
438 2 1
499 13 18
130 12 18
344 13 1
117 5 23
191 2 24
442 12 3
283 13 4
316 3 1
359 12 23
68 14 20
292 9 2
303 3 19
472 4 3
328 14 6
295 1 15
164 11 3
435 10 25
128 3 28
197 14 28
88 7 4
322 5 22
413 10 10
57 5 25
306 0 13
267 8 12
471 12 9
239 14 27
378 2 11
319 6 23
148 16 4
435 8 21
201 0 16
222 8 16
112 5 25
51 10 26
213 12 25
172 13 27
483 2 22
115 2 25
386 6 16
268 9 13
217 0 26
434 3 15
237 12 21
451 0 1
306 8 28
406 5 9
215 1 27
405 15 5
437 7 18
487 16 9
437 3 0
468 0 8
420 1 23
441 9 10
367 5 3
254 8 20
275 0 12
140 16 15
178 0 6
319 6 4
46 11 27
289 3 7
139 9 4
296 16 11
478 5 15
89 16 24
8 16 21
82 2 5
362 1 11
470 4 25
27 6 13
274 4 19
465 3 10
144 9 18
254 11 10
164 10 21
66 1 26
378 16 1
77 14 20
249 5 3
285 7 17
475 15 19
389 3 27
316 5 10
476 1 26
112 13 26
24 16 18
311 3 21
108 7 11
277 16 25
186 14 27
295 10 27
164 8 27
210 15 18
212 0 0
447 12 19
242 9 16
327 12 12
156 4 9
183 0 0
112 10 25
290 11 15
293 5 21
67 13 3
188 14 5
456 0 11
262 11 5
369 13 10
407 4 8
100 0 15
211 3 22
181 2 20
221 6 18
424 6 11
414 13 22
182 7 25
462 16 25
469 0 22
461 8 10
241 10 28
5 16 9
204 10 24
250 12 7
178 11 2
274 13 1
169 8 21
134 3 5
130 6 9
240 0 3
171 0 8
195 10 22
89 11 9
211 1 8
184 9 12
246 8 21
313 16 11
334 16 28
192 1 4
300 12 12
424 3 28
324 8 2
377 11 4
337 15 11
143 15 6
117 11 14
134 8 22
367 1 13
230 3 10
201 11 5
76 2 11
368 5 3
324 13 16
76 5 24
263 7 24
351 1 12
4 16 15
344 15 24
53 15 4
381 6 18
23 13 17
128 15 4
67 8 28
43 13 8
267 15 21
81 5 2
421 13 11
454 2 3
155 6 23
420 6 24
466 15 22
39 4 25
290 9 27
8 7 1
427 4 3
434 8 20
304 7 10
163 12 2
446 14 2
484 1 2
477 13 26
465 8 19
161 7 13
444 2 1
314 5 17
496 15 1
86 14 18
102 11 11
409 16 8
36 16 20
162 5 3
183 9 4
34 4 2
382 10 22
499 0 27
6 9 10
34 16 9
90 11 24
436 13 13
497 12 2
212 4 18
34 10 12
177 10 16
286 15 2
27 11 15
345 7 21
382 2 9
236 15 20
57 13 2
372 6 3
239 5 16
385 10 24
291 2 5
469 4 8
116 0 22
396 10 21
446 11 26
15 13 17
92 3 16
250 9 21
129 4 15
209 5 25
210 16 18
31 4 14
294 3 17
300 11 2
492 1 20
267 4 14
59 12 22
51 14 14
330 12 22
458 12 2
80 13 25
334 14 24
15 3 7
477 10 5
299 4 4
414 1 12
290 0 8
238 10 10
24 4 20
75 8 15
432 3 11
72 5 2
392 8 11
374 2 11
499 10 12
437 8 4
427 2 7
450 14 19
492 12 9
174 3 18
3 3 11
416 0 6
326 4 10
171 9 8
164 4 12
498 15 4
109 6 17
397 5 10
363 8 12
223 2 7
365 6 22
431 11 2
330 12 12
48 0 23
460 12 2
184 14 27
370 1 9
493 10 5
110 9 9
190 14 14
52 9 25
424 5 3
483 4 20
429 11 10
351 12 11
286 15 14
28 7 19
289 11 17
444 9 4
190 9 27
284 8 2
386 5 28
473 7 5
405 4 12
52 13 19
109 1 0
229 8 3
414 4 2
452 0 1
347 13 23
317 2 2
309 1 15
469 1 3
17 4 9
13 11 27
474 12 14
280 14 19
109 2 23
108 16 16
52 8 24
216 9 11
101 5 22
216 7 15
392 1 23
388 8 16
226 0 8
91 3 16
256 10 13
89 9 28
183 16 26
158 13 26
193 1 16
255 8 14
31 0 6
79 8 8
122 0 28
346 3 18
108 3 2
301 2 15
304 1 1
162 10 8
450 12 22
146 16 5
460 16 1
233 14 15
325 1 15
153 2 28
483 5 17
32 5 3
90 8 24
479 12 16
258 15 27
399 3 5
240 4 24
317 1 27
272 7 13
182 8 0
112 7 19
387 13 24
283 15 11
229 9 0
355 8 3
208 5 22
488 6 8
483 11 18
386 11 15
467 16 2
206 6 3
77 6 2
188 12 23
421 12 25
248 10 5
420 0 18
424 14 10
425 16 22
270 3 23
412 7 4
470 0 21
252 2 25
13 12 9
62 12 1
94 4 20
53 1 0
475 3 26
360 8 3
129 10 3
382 15 23
176 1 27
442 0 0
121 15 11
364 13 24
307 14 18
161 11 19
52 5 23
211 6 21
176 1 8
333 13 1
363 16 18
380 5 2
491 5 22
31 4 12
129 16 10
354 1 19
143 10 19
444 10 8
369 13 24
80 6 12
278 14 0
426 2 3
78 15 13
290 11 23
73 12 11
5 9 11
225 2 22
2 16 20
258 8 23
216 13 5
53 13 1
164 9 28
38 0 7
279 7 15
170 3 16
1 3 19
217 14 23
262 13 0
27 8 24
256 1 18
426 8 9
461 8 20
3 0 0
166 4 26
8 13 21
406 15 27
467 0 23
91 1 23
208 12 18
493 1 11
268 1 17
390 3 9
469 7 6
359 15 25
281 12 14
220 5 23
244 13 2
287 3 20
216 16 0
97 3 15
361 0 16
497 8 8
50 14 24
146 15 23
112 6 8
348 5 14
57 16 11
126 7 0
344 16 22
72 8 9
40 6 16
414 3 4
477 10 19
309 7 2
484 4 19
273 5 5
482 9 15
315 11 12
496 7 2
353 4 13
482 2 8
364 8 3
486 15 4
485 14 5
275 15 4
457 6 1
218 8 4
475 10 20
175 16 3
120 14 24
436 2 2
212 10 12
232 13 24
150 4 24
420 5 19
33 4 25
472 8 28
341 12 20
465 11 5
420 5 5
469 9 22
296 14 2
360 4 19
228 5 22
141 4 2
111 16 1
114 4 8
251 3 20
333 9 13
286 15 16
267 5 3
83 0 4
323 15 24
394 6 14
271 7 4
346 4 9
70 9 24
133 12 15
38 4 1
464 12 3
88 1 22
6 11 6
384 5 6
324 2 13
14 15 0
32 11 2
218 8 18
259 0 3
13 0 9
487 2 28
457 8 13
416 7 0
313 8 4
303 13 28
264 7 5
221 13 24
298 13 23
389 8 28
335 3 7
251 8 6
178 8 15
258 2 17
92 6 16
455 4 20
413 9 16
459 10 16
255 10 12
306 15 20
176 5 19
463 15 8
395 4 5
70 11 16
273 12 25
238 12 18
193 5 9
10 11 20
47 6 7
417 12 25
258 0 17
485 15 23
448 11 8
59 6 1
483 10 23
497 11 28
45 1 17
125 11 25
37 8 19
390 11 14
398 5 19
454 3 20
221 6 14
26 13 20
327 3 16
87 0 16
37 16 3
366 2 9
249 11 18
473 7 8
452 2 27
51 12 21
360 6 3
186 6 16
454 12 1
155 1 11
91 2 20
396 16 11
130 9 28
448 1 10
363 3 16
492 5 25
111 6 12
97 16 13
313 7 26
363 10 19
372 15 2
398 9 3
280 1 3
460 10 26
471 16 26
211 15 20
464 12 0
407 4 12
481 9 19
431 15 2
289 5 4
42 7 4
428 16 7
442 0 15
153 2 10
390 9 18
258 11 21
115 3 16
333 9 2
207 6 25
385 0 10
58 9 20
474 3 2
350 3 6
93 9 9
418 6 20
192 4 19
358 10 10
108 5 25
209 6 3
463 8 4
249 7 13
337 3 2
207 0 28
77 11 26
167 6 10
366 6 6
134 0 9
86 9 18
136 11 25
453 11 0
421 6 12
264 8 19
307 4 21
349 13 13
34 8 3
265 14 28
202 0 14
453 9 2
388 6 21
253 0 19
92 10 22
368 8 10
92 6 14
423 9 11
258 2 9
114 6 6
303 6 1
459 6 28
30 14 9
335 8 14
160 12 26
73 4 1
105 15 1
474 0 27
363 10 22
441 10 13
273 5 19
30 9 5
87 9 28
427 1 25
320 5 6
111 1 12
56 0 25
150 5 6
478 11 14
141 9 28
220 8 7
45 3 22
442 3 19
199 2 10
108 13 15
220 7 5
74 10 5
89 12 19
50 8 16
11 10 11
68 6 8
357 2 3
86 2 25
284 8 23
438 9 15
138 15 23
17 13 13
141 3 19
356 7 28
263 13 24
155 6 6
321 0 14
466 8 18
279 3 26
475 10 3
219 2 18
425 1 1
60 9 12
493 8 19
40 6 19
67 14 5
401 12 0
306 3 12
275 8 2
179 0 28
43 7 0
366 6 20
284 15 9
50 6 3
243 4 7
198 12 16
380 6 16
18 6 7
120 9 4
352 10 18
482 5 3
424 2 9
118 3 6
73 10 19
481 4 2
467 12 23
65 13 1
224 13 20
114 7 1
99 8 2
435 3 22
178 1 2
265 8 7
210 9 14
40 1 6
494 9 1
220 2 19
499 3 10
489 11 20
322 0 13
57 7 5
25 11 5
411 5 22
105 12 19
437 16 28
79 12 24
32 11 13
280 12 27
243 10 21
133 9 22
332 7 1
288 13 27
64 10 21
246 7 26
137 11 28
348 8 22
230 5 9
444 16 28
124 0 3
65 0 2
159 14 11
189 10 4
332 8 17
54 12 26
437 7 18
218 6 1
422 16 18
421 16 11
176 0 17
114 3 7
16 0 28
26 12 14
311 15 13
128 13 27
114 10 11
119 16 9
118 10 8
385 0 23
167 14 1
18 12 0
382 13 8
227 4 24
56 2 5
181 11 12
235 16 4
76 3 0
314 0 8
88 0 9
346 10 15
329 12 27
67 8 18
22 8 25
243 13 2
418 14 4
307 2 17
437 0 18
178 1 6
285 0 19
209 15 3
237 7 4
85 9 20
164 10 21
358 4 20
404 3 28
279 14 6
176 5 26
347 14 23
52 10 7
210 5 19
357 3 20
365 7 6
109 15 23
151 0 5
406 8 25
488 4 18
422 5 23
396 2 21
499 7 7
24 12 6
265 2 6
105 8 22
205 16 2
405 13 9
291 7 4
97 3 27
130 12 18
207 2 12
138 2 0
3 2 25
33 13 24
39 14 22
10 13 25
320 16 24
319 1 13
142 3 19
165 12 22
25 9 24
396 11 21
185 6 3
403 13 15
42 0 25
47 16 10
354 6 14
226 1 10
474 3 23
63 7 23
456 10 0
1 11 28
145 11 14
14 5 23
402 12 21
79 14 18
105 10 6
195 0 20
30 9 3
420 6 16
397 8 1
336 8 6
389 13 28
444 1 18
494 1 2
377 16 10
182 2 9
404 13 3
452 11 23
158 11 22
258 6 14
247 14 27
431 8 20
54 12 27
89 7 14
20 2 23
388 1 23
172 9 25
365 11 23
20 15 11
344 15 4
378 0 0
421 8 19
12 15 21
273 1 9
36 0 17
339 10 18
456 9 4
264 13 28
458 11 2
219 2 0
309 7 8
266 8 21
209 0 27
213 3 20
118 11 28
307 0 22
17 12 18
41 7 5
190 5 17
244 15 0
179 7 20
351 14 21
315 3 28
199 5 6
456 9 1
399 0 9
104 11 12
467 5 21
111 16 14
142 5 13
119 12 16
326 6 19
325 1 7
478 7 16
150 16 2
266 15 23
392 16 8
485 6 19
47 16 17
319 16 5
195 15 14
129 12 6
209 4 5
270 8 18
85 13 24
51 13 9
401 6 7
164 16 12
444 1 12
150 12 10
237 1 2
157 15 20
290 9 27
325 6 24
260 16 18
353 15 23
446 12 15
342 2 2
205 2 5
446 16 3
410 12 21
433 7 6
125 13 6
55 10 9
162 4 25
354 6 8
209 0 2
309 9 9
324 12 5
249 14 14
233 16 6
330 6 1
144 6 3
303 7 0
222 0 17
422 3 16
467 16 7
281 16 1
10 9 17
362 6 1
439 15 28
178 5 15
17 0 10
345 13 26
316 8 28
341 1 3
197 6 1
237 4 24
408 4 23
24 6 11
228 11 14
433 13 22
276 0 6
495 3 4
119 15 19
235 4 17
440 5 15
407 8 1
87 3 25
277 7 0
487 16 11
294 4 17
118 12 14
174 7 21
82 15 2
163 1 26
303 5 15
180 14 21
21 4 21
288 2 12
138 3 26
265 9 3
69 1 0
426 13 27
103 0 11
159 13 11
493 10 28
318 14 21
472 16 19
13 11 24
263 8 6
436 5 2
427 16 10
485 16 18
83 13 25
93 16 22
158 14 0
142 11 16
497 11 11
131 5 21
284 8 18
245 16 22
452 8 16
45 7 12
34 12 10
52 13 13
329 14 15
18 6 13
257 7 13
447 2 15
75 2 1
467 16 10
455 3 27
309 8 19
194 5 18
329 3 18
170 14 5
145 14 19
475 11 20
434 0 25
155 9 6
168 10 5
473 2 3
452 5 1
409 3 10
101 1 2
367 7 21
0 0 27
274 1 3
121 16 19
460 12 4
151 14 25
400 2 18
481 6 7
202 5 6
182 15 6
41 10 26
481 3 13
238 14 12
57 13 12
241 0 15
72 2 16
123 11 1
220 1 5
108 0 8
499 14 6
459 2 13
452 13 3
495 7 21
43 2 1
327 6 22
124 11 14
42 5 25
4 12 12
39 5 22
328 8 9
133 0 18
229 5 17
329 1 4
497 13 28
478 13 21
87 16 0
246 13 23
224 2 17
138 4 8
447 16 26
135 9 14
144 9 5
424 6 19
303 13 26
205 16 25
352 13 19
265 4 12
347 7 25
324 9 26
455 2 20
219 3 9
411 0 24
302 1 16
496 3 18
455 12 7
290 9 18
30 12 12
80 4 13
157 9 28
148 16 0
1 9 12
203 16 3
406 12 27
259 2 1
334 10 16
373 13 15
256 0 13
28 1 4
61 1 27
243 14 21
300 0 27
305 16 27
64 6 6
128 1 13
194 5 15
176 10 2
165 11 21
358 7 6
189 15 12
14 0 17
499 1 0
91 16 26
389 12 8
191 2 1
447 9 12
292 6 1
31 9 27
18 2 6
476 12 17
252 16 16
250 15 9
43 5 13
436 14 7
98 8 23
392 16 16
29 9 15
410 5 19
422 11 19
71 7 19
499 9 3
399 9 14
230 12 20
294 10 6
407 8 8
215 3 28
88 10 27
89 15 17
82 4 7
90 15 0
415 12 7
224 4 11
254 6 6
134 6 24
52 8 12
193 8 7
57 15 28
408 12 1
307 9 26
303 16 4
53 11 11
475 10 28
349 7 14
298 4 28
456 1 8
463 6 11
419 13 23
102 2 11
320 16 10
251 6 11
449 16 24
363 10 17
128 4 14
44 5 27
343 1 16
124 2 18
303 12 21
227 10 0
236 14 14
75 16 12
320 4 20
493 13 14
243 10 0
435 16 20
200 6 14
379 15 5
271 9 1
185 4 3
294 14 6
489 14 22
136 6 9
454 14 6
418 0 15
249 13 25
338 0 22
4 13 11
472 13 0
239 15 26
452 6 23
401 14 27
360 6 4
213 5 23
267 9 25
47 14 8
111 12 12
69 2 5
370 5 1
401 15 26
238 12 21
156 3 8
42 3 27
342 7 23
12 9 21
425 1 1
445 11 0
236 6 11
424 7 11
49 0 28
189 5 4
394 5 17
261 3 25
282 15 15
13 12 2
268 3 17
331 1 23
434 10 11
441 9 24
298 15 6
497 1 6
460 8 25
367 9 15
5 8 5
322 1 23
318 11 7
194 3 0
16 2 19
216 6 15
335 13 15
233 6 15
333 2 22
153 7 16
469 13 13
235 8 24
310 11 25
99 0 18
476 12 12
10 7 22
394 5 2
449 7 5
120 10 11
254 13 10
326 15 6
385 14 16
169 14 18
299 16 18
131 15 24
204 8 1
80 13 8
141 8 2
335 5 17
258 14 14
359 11 8
219 7 25
482 14 22
322 15 13
251 4 5
58 13 26
140 6 10
280 2 27
494 15 23
489 6 0
233 0 1
183 16 7
49 5 26
299 4 23
123 4 3
343 0 21
277 2 9
305 3 1
27 16 25
238 9 12
235 3 22
423 3 21
462 0 11
164 6 12
320 9 24
493 10 1
30 2 17
145 1 27
152 1 1
177 14 19
0 15 26
302 2 11
212 3 3
442 0 25
249 3 27
426 0 16
360 12 10
195 6 14
264 1 28
211 13 8
486 16 6
324 14 3
13 14 19
159 3 16
192 16 21
479 10 5
151 0 11
324 0 11
495 3 13
83 1 20
106 4 15
204 10 26
201 0 19
160 14 22
263 4 8
165 2 4
194 12 11
221 9 28
54 12 15
459 6 27
28 6 24
47 4 22
400 16 25
494 6 14
332 7 5
356 3 21
78 6 11
140 4 22
160 6 18
448 14 7
210 10 25
489 10 21
40 7 15
59 10 3
189 15 17
107 16 3
108 14 19
275 0 9
492 1 22
447 9 27
338 1 13
479 2 20
450 9 11
203 13 19
488 14 24
437 0 8
164 3 26
27 1 25
41 15 27
248 1 25
395 14 12
143 1 5
1 13 15
6 13 10
373 16 15
24 16 12
70 15 12
162 9 23
91 12 16
420 11 0
327 2 5
166 9 28
278 2 6
161 13 0
173 10 24
147 13 27
376 7 26
248 3 5
423 6 6
447 15 12
472 13 21
432 9 23
53 5 25
12 1 7
235 10 8
36 10 1
230 3 8
234 3 16
77 1 5
460 16 8
397 12 19
467 13 18
343 8 4
393 12 20
277 7 20
67 5 10
481 10 6
397 10 25
317 13 18
443 8 14
262 2 9
165 16 15
202 7 8
210 8 22
242 7 1
346 2 7
193 11 23
176 15 5
293 13 21
0 10 25
175 1 16
11 15 17
140 13 2
323 0 9
425 16 7
81 10 17
483 13 22
450 5 19
225 2 5
39 13 5
390 15 22
242 2 18
90 7 2
407 9 28
292 12 18
97 14 4
477 12 18
1 2 15
13 16 21
443 3 12
5 6 15
168 7 13
416 0 6
218 3 23
292 9 14
446 2 8
355 4 6
234 3 5
197 12 12
363 14 28
258 3 8
474 16 1
317 10 16
243 7 23
274 16 27
482 4 26
280 6 2
471 3 5
71 1 24
137 7 10
437 7 24
346 8 5
470 7 4
223 13 17
235 6 9
227 10 2
238 9 24
340 15 1
136 0 9
336 2 17
484 5 1
309 15 21
101 10 25
186 7 11
229 3 10
370 14 15
266 4 14
247 12 14
346 16 11
85 2 2
69 12 9
61 10 7
193 2 26
479 0 9
215 12 24
174 8 27
378 7 22
94 12 28
480 5 24
347 1 15
226 14 4
235 14 7
491 8 25
159 14 28
157 3 20
322 12 12
237 13 22
221 8 27
278 3 25
403 5 18
203 0 13
358 13 2
138 3 15
464 0 15
116 10 9
230 7 6
230 1 11
356 15 22
457 0 7
497 13 20
419 12 2
227 16 19
484 10 10
255 13 12
121 14 26
16 6 2
150 6 19
96 8 22
182 12 9
162 1 0
430 15 24
259 6 12
28 16 26
326 2 21
178 6 2
489 11 11
271 9 17
30 8 26
291 11 13
315 1 2
109 11 27
261 7 27
40 8 12
113 3 14
442 6 25
198 16 14
95 0 14
415 4 27
300 11 15
357 14 22
363 16 25
84 14 19
257 8 18
62 3 5
406 0 0
62 2 19
165 12 23
283 11 13
318 11 0
56 12 27
144 8 20
10 2 12
70 12 15
139 0 18
407 15 26
439 2 13
452 11 12
355 13 16
107 8 24
407 4 7
378 16 22
68 11 19
32 2 7
84 12 21
424 4 9
401 0 4
92 0 3
118 10 9
126 14 27
240 7 21
169 5 18
498 8 2
145 13 20
407 7 16
17 0 6
60 3 11
86 12 3
231 12 20
51 2 2
175 7 12
326 13 18
360 11 0
447 11 10
282 16 19
382 12 3
302 14 5
146 10 13
48 4 10
433 12 3
284 0 3
435 16 6
83 0 8
271 8 15
172 11 17
447 12 3
239 5 18
47 6 28
284 8 9
10 7 17
155 13 21
334 7 6
86 8 27
420 16 3
350 3 14
130 15 7
372 4 26
335 11 23
261 0 18
67 3 2
147 2 27
106 8 11
280 2 18
199 1 25
73 13 11
2 8 0
443 16 7
386 2 26
444 7 6
378 9 16
70 4 18
404 8 14
310 6 1
4 8 12
260 6 8
32 1 1
451 1 8
358 9 28
286 8 25
13 1 24
78 6 4
345 3 28
58 10 13
383 8 23
217 11 27
489 3 28
430 13 2
307 5 9
392 2 17
321 13 6
278 7 20
179 15 17
326 1 13
259 4 10
381 6 15
373 1 25
14 12 13
445 8 23
278 7 19
141 13 3
147 2 28
89 11 21
370 7 21
310 9 4
475 15 19
38 8 26
208 10 1
10 5 3
363 0 26
370 15 8
483 9 16
342 10 3
360 0 17
471 3 7
398 7 8
478 5 4
280 0 11
161 16 20
200 8 5
330 12 23
387 14 27
64 5 2
290 14 26
42 2 27
415 10 27
41 13 24
459 7 10
199 6 12
266 1 12
140 7 4
392 3 13
246 12 25
373 5 25
116 7 1
258 8 10
263 3 27
330 12 22
240 2 1
270 15 28
344 11 25
497 1 5
189 14 16
282 7 16
466 7 22
462 7 19
491 10 22
65 12 28
361 6 17
303 8 0
75 11 14
66 16 12
17 7 24
288 5 19
128 0 27
51 6 2
64 1 23
197 4 20
83 8 17
187 12 1
442 13 1
163 12 10
176 4 22
212 0 3
337 8 9
469 0 14
148 16 6
488 11 14
38 4 24
432 1 14
286 3 26
357 14 24
463 10 2
77 0 14
122 10 15
329 7 14
233 3 11
475 3 2
232 13 5
270 5 9
314 10 14
201 14 18
219 7 1
381 6 18
349 5 24
30 8 24
54 8 1
382 14 16
444 15 8
86 13 20
118 16 17
436 10 11
282 2 27
301 4 9
370 6 20
482 1 5
91 16 14
164 2 13
224 12 12
260 8 12
75 4 0
348 2 10
332 8 14
452 0 1
84 7 22
459 1 26
78 7 23
468 8 20
404 10 7
249 5 18
249 8 14
44 2 3
158 7 5
267 11 8
434 13 18
443 6 28
474 0 8
59 9 28
361 0 15
176 15 8
168 10 1
129 4 15
482 9 24
271 5 25
313 10 0
34 14 4
265 3 12
269 10 6
224 5 12
69 7 19
236 12 17
219 1 18
475 5 26
150 7 8
7 6 17
107 8 13
214 4 16
130 13 3
69 9 7
236 11 11
155 9 12
390 9 23
324 9 0
238 3 4
252 7 24
181 5 3
413 12 4
495 15 24
201 12 28
326 10 26
41 11 10
395 12 16
12 16 3
6 2 14
112 14 11
453 2 22
40 6 26
472 4 18
130 11 18
459 1 24
489 6 3
178 8 2
427 10 2
456 16 26
6 4 2
420 4 18
420 0 24
445 2 13
148 4 13
213 16 11
206 3 19
367 14 11
74 0 17
263 3 4
464 4 11
23 0 9
496 14 20
2 0 12
200 14 2
224 10 25
4 6 24
293 14 27
66 3 9
72 5 10
41 15 27
30 2 13
45 5 12
436 2 4
387 12 27
483 13 14
462 13 10
260 4 17
180 2 12
369 11 22
393 5 25
8 2 8
100 9 11
247 2 3
154 7 19
159 9 27
471 5 27
461 13 21
204 11 2
288 0 12
166 3 6
490 0 28
403 0 16
393 0 12
327 2 27
175 15 19
190 3 11
265 5 1
22 7 2
427 9 20
384 5 2
311 5 1
110 16 15
146 5 27
421 7 4
374 10 24
188 2 3
193 4 7
484 16 1
198 16 4
130 0 9
402 3 1
79 9 16
354 0 3
352 4 25
229 13 22
270 6 10
13 15 11
56 6 27
263 12 21
378 2 12
125 16 27
348 6 11
452 8 18
104 10 25
159 16 11
223 3 18
26 14 11
131 7 20
196 9 15
56 0 0
205 3 6
418 4 28
285 0 16
361 13 7
434 3 3
482 12 26
111 9 10
193 5 6
487 3 11
145 13 10
122 6 1
211 15 16
420 3 7
284 7 8
423 8 27
20 1 19
470 12 3
306 5 1
340 4 20
65 2 24
136 10 18
145 1 25
195 10 4
452 0 27
286 10 5
253 0 26
454 14 0
201 5 24
264 9 9
122 10 6
41 2 22
74 0 7
109 2 27
68 5 11
239 9 10
226 12 0
104 6 23
70 15 2
190 0 1
66 15 17
7 11 6
120 3 9
198 12 28
333 16 27
448 7 27
157 8 22
85 16 18
29 6 7
82 14 1
274 8 18
45 3 10
451 4 14
235 10 9
24 11 17
14 10 0
223 12 12
388 0 20
264 8 19
230 13 7
314 2 17
481 9 8
111 7 20
271 6 14
205 12 16
131 0 21
212 4 10
486 12 12
428 4 2
0 0 13
129 6 3
348 0 2
384 15 13
152 4 0
312 4 11
415 9 17
446 15 7
395 12 22
198 15 9
158 2 8
466 2 6
186 15 23
166 16 27
102 2 8
455 4 4
344 2 9
135 4 24
291 13 7
320 2 2
412 13 3
278 10 11
262 2 0
158 13 24
153 3 9
402 16 14
300 1 21
245 4 25
272 7 22
202 13 23
411 16 6
475 7 6
99 7 5
206 12 17
18 7 7
139 5 18
80 2 25
349 7 5
81 9 16
39 12 4
53 9 18
261 4 23
405 6 8
82 0 12
411 13 3
448 8 14
56 2 0
105 10 16
382 2 22
200 3 27
432 12 11
319 2 24
269 12 7
163 2 21
142 8 6
366 11 14
136 12 15
148 14 14
489 7 21
151 7 12
37 0 19
371 5 15
469 6 20
168 9 20
11 7 20
449 11 3
326 5 7
237 5 17
206 2 23
89 6 21
326 11 16
139 13 7
94 4 11
50 14 19
33 4 7
293 5 25
392 8 27
63 11 21
22 16 15
222 9 28
400 10 15
41 14 8
36 2 19
205 13 9
129 1 24
12 2 17
284 10 22
110 12 12
173 3 6
353 6 6
141 2 0
47 7 16
441 10 12
23 1 3
185 16 13
95 8 4
478 0 10
105 13 12
97 6 13
498 4 19
203 9 21
112 1 13
97 16 9
315 15 5
78 2 5
120 4 28
195 0 2
179 15 23
273 2 23
432 14 27
184 1 9
413 5 28
82 1 28
85 10 12
400 9 5
383 3 26
419 13 12
145 15 8
424 7 20
102 1 13
385 6 22
374 2 21
10 5 9
218 6 25
9 1 12
442 16 27
155 3 13
133 3 20
376 9 6
27 10 7
349 8 1
155 9 21
2 6 14
227 12 28
165 14 14
170 4 14
442 1 7
379 12 10
491 4 0
483 6 19
207 13 14
452 0 4
300 12 14
75 0 20
245 6 6
357 14 26
14 9 20
167 11 18
322 5 16
110 1 11
114 2 27
93 7 11
279 1 22
420 5 20
290 10 22
116 13 4
269 4 12
389 13 7
45 7 7
450 8 27
212 13 25
165 15 14
294 6 28
358 14 15
293 2 20
470 13 10
119 12 25
352 7 20
10 1 27
85 16 27
462 0 12
113 16 1
351 12 7
494 2 9
194 13 15
394 11 19
338 9 0
485 16 10
66 9 22
287 9 7
283 13 18
180 9 23
231 1 14
371 13 27
244 12 27
49 12 10
123 16 19
356 1 10
262 4 19
99 16 3
90 11 26
0 0 25
128 12 20
74 4 2
343 14 25
167 15 9
21 14 0
101 16 25
369 6 6
44 7 7
487 11 24
350 3 16
100 14 1
142 8 25
374 4 19
409 13 3
264 13 15
345 0 27
443 0 20
199 5 15
435 0 22
388 9 6
2 12 24
356 6 23
469 15 11
266 8 23
52 11 1
174 9 14
95 16 17
216 0 21
31 1 18
285 12 14
97 8 28
28 6 1
398 12 17
410 7 0
100 7 8
59 9 5
392 4 23
111 6 6
145 12 6
468 8 16
462 8 15
134 3 15
338 12 23
304 6 3
451 11 22
24 5 4
475 1 1
193 0 27
275 11 8
329 8 7
200 7 21
28 4 20
436 6 13
362 16 28
343 5 17
145 8 17
357 1 4
56 9 14
240 8 11
140 5 19
133 15 9
138 3 0
444 6 17
68 16 9
427 8 4
429 0 12
363 15 12
424 14 27
366 9 15
213 3 11
498 16 21
388 8 27
404 13 25
252 2 22
55 16 0
0 14 2
265 8 28
140 16 23
365 10 6
491 3 16
183 9 12
310 13 10
133 0 17
179 9 15
303 8 13
154 0 6
190 6 5
416 15 27
198 0 8
310 0 9
33 16 5
234 0 21
128 1 1
322 1 8
76 7 9
444 3 4
256 1 15
489 13 12
129 11 7
67 16 28
165 10 11
349 0 21
299 5 14
105 9 23
169 12 22
369 14 23
77 9 2
294 10 5
6 4 0
37 9 8
41 1 18
81 2 7
148 2 11
174 13 23
201 2 27
227 7 8
76 8 23
410 7 22
165 2 5
23 4 9
493 4 23
402 11 16
399 3 10
269 0 21
87 13 16
481 16 20
12 7 8
266 5 10
57 13 19
51 7 9
87 6 15
205 4 14
266 13 16
186 10 25
239 6 10
459 1 10
492 6 9
1 11 21
175 13 25
414 1 2
373 9 3
472 14 18
181 15 12
95 4 21
282 1 4
58 15 20
67 0 4
473 0 6
486 5 10
38 5 5
244 2 20
452 10 8
46 7 1
150 15 9
204 9 16
181 13 20
86 9 28
234 1 12
339 14 3
436 6 5
133 4 0
176 13 13
123 8 24
471 1 10
405 2 1
121 1 22
330 15 4
329 2 23
494 8 21
16 5 5
63 7 9
251 5 18
72 1 24
176 4 21
31 3 6
453 16 10
333 10 6
199 11 2
90 15 12
131 9 10
24 8 24
169 4 11
226 15 23
228 4 8
44 1 16
222 7 7
262 13 20
68 8 24
211 12 24
176 11 16
215 15 0
143 9 14
425 9 21
27 7 4
318 7 12
412 1 3
76 1 22
273 13 22
403 13 19
134 16 10
176 12 11
134 3 12
403 13 23
364 0 26
318 9 3
360 0 8
411 12 5
364 6 24
179 0 25
436 10 6
323 16 20
330 9 9
436 1 25
163 15 17
225 3 16
412 0 19
54 8 2
139 11 20
332 1 28
194 14 15
55 16 28
381 7 26
368 9 16
367 10 11
1 0 17
369 5 28
448 9 11
488 16 3
29 15 16
490 4 15
110 4 24
332 5 4
424 9 23
428 1 7
301 7 24
470 7 4
332 15 8
207 1 24
210 1 28
328 11 9
333 2 26
210 3 10
15 4 18
112 7 15
229 12 27
106 4 9
181 1 4
107 0 24
28 13 10
274 7 13
118 2 24
487 3 12
219 14 21
396 1 5
98 6 0
377 7 16
65 4 1
69 2 13
484 4 14
74 10 7
273 4 3
347 6 27
425 9 13
420 3 7
5 4 16
318 6 1
308 10 7
456 11 24
345 16 4
381 4 21
385 6 24
131 14 12
439 16 24
62 0 23
109 14 20
433 16 0
164 13 13
312 9 14
350 12 19
455 13 3
300 16 12
349 0 0
268 0 28
37 12 9
311 1 23
248 16 27
272 11 1
228 12 3
454 5 3
93 12 7
93 13 11
458 0 7
76 7 0
145 5 10
140 5 14
432 2 20
70 0 15
81 15 23
422 14 5
369 3 19
93 14 23
20 16 4
466 10 12
352 12 8
275 16 23
136 11 2
246 14 2
165 15 17
263 0 21
318 5 7
310 8 7
135 4 20
88 13 10
440 7 10
378 5 10
101 16 7
449 9 7
438 3 14
331 7 24
268 1 18
137 7 14
12 14 1
138 7 11
343 6 14
462 5 22
410 7 10
367 4 22
444 0 14
153 13 16
342 1 3
84 3 27
422 5 13
323 8 22
239 9 2
52 6 28
354 3 13
252 14 16
177 10 17
260 2 24
92 5 21
304 14 26
391 5 6
460 1 2
367 12 25
492 15 10
474 16 2
487 1 7
97 4 12
256 16 16
444 12 0
284 7 5
131 15 3
215 5 16
497 6 20
176 5 19
346 16 1
215 5 22
398 7 26
41 6 8
70 2 16
169 6 22
78 13 1
183 3 5
491 15 10
288 3 27
131 0 12
313 16 7
294 14 25
412 11 15
33 9 0
182 11 19
412 4 18
324 5 3
23 11 5
18 3 9
409 15 22
493 13 25
230 9 10
80 12 4
109 11 8
365 7 15
223 3 16
211 1 8
242 10 1
423 15 9
320 3 0
460 11 1
497 3 21
373 9 6
88 4 8
415 13 26
462 0 23
419 5 9
119 7 9
50 12 23
117 9 16
248 1 18
264 3 24
490 7 13
114 5 28
432 14 22
150 1 28
236 5 3
240 0 5
117 15 7
432 9 10
24 16 5
59 16 15
458 11 12
336 10 27
88 4 24
384 11 13
415 14 13
205 1 26
262 8 26
315 8 9
129 8 9
354 2 0
437 10 6
242 11 0
236 8 10
188 0 3
63 15 19
313 15 1
84 2 17
146 0 7
465 5 26
5 6 18
472 9 16
183 11 22
392 8 11
49 16 21
121 0 28
80 12 6
343 16 13
101 16 28
235 13 5
64 11 7
335 9 25
153 4 5
136 11 18
276 2 4
387 1 10
335 10 22
55 6 28
300 9 22
157 9 9
352 11 10
333 12 25
77 1 20
251 1 17
439 1 3
359 8 5
130 4 9
380 4 13
353 0 3
228 0 2
191 16 19
150 12 28
23 4 5
238 16 22
409 12 18
400 9 9
120 3 12
420 5 14
474 4 16
120 5 22
437 11 9
489 12 20
92 14 22
132 5 18
66 13 23
156 13 10
381 9 25
298 15 0
38 5 8
439 3 3
391 10 17
187 12 9
145 2 26
169 10 26
64 16 4
240 3 11
362 5 27
56 3 18
76 11 3
79 10 8
353 6 21
300 3 11
137 2 0
275 4 20
204 8 5
329 12 22
440 9 14
465 14 2
139 4 26
405 0 7
84 4 26
378 2 24
102 12 6
444 16 11
413 1 0
415 16 18
214 13 10
34 11 15
336 13 17
87 1 10
231 5 6
232 10 8
340 0 21
215 4 6
273 15 9
401 6 27
495 10 17
440 15 14
197 5 1
398 16 15
413 4 4
197 16 4
121 0 19
129 8 8
220 2 10
453 13 28
245 6 18
38 8 11
251 0 11
109 1 27
204 4 12
281 15 27
266 7 7
123 2 7
366 0 11
428 8 23
152 15 14
4 5 6
49 15 22
165 0 7
179 6 11
465 6 6
319 13 0
104 14 8
486 3 9
170 1 24
108 13 9
429 10 4
151 0 9
78 2 18
45 3 23
216 12 18
253 4 8
89 8 2
7 11 15
430 11 20
28 15 7
244 6 2
6 8 26
165 13 26
294 11 3
423 15 22
207 4 19
390 16 21
475 7 18
58 0 11
413 8 5
24 10 10
162 15 2
38 6 17
66 3 27
330 3 21
295 5 26
91 0 21
370 8 9
235 6 10
142 9 9
55 15 15
307 7 2
284 4 11
412 2 17
80 11 9
423 6 5
96 16 15
436 4 24
429 9 2
396 5 27
297 6 19
498 16 26
152 14 13
14 4 13
18 7 0
496 16 9
69 8 25
324 1 23
205 9 17
268 16 5
79 4 9
338 4 22
72 8 9
20 15 27
480 5 2
294 2 20
191 7 9
425 1 10
66 9 8
115 15 0
312 12 1
100 16 16
441 16 4
318 7 6
131 11 3
262 15 26
66 7 23
259 2 26
384 13 21
29 16 9
214 13 6
216 5 13
210 16 11
421 5 1
128 4 25
456 12 28
413 1 18
261 1 14
279 14 4
23 9 13
330 5 1
306 13 3
280 7 27
154 8 27
171 10 27
31 3 14
110 12 28
306 8 25
294 15 17
160 13 14
438 2 13
452 2 3
28 7 10
128 6 19
472 7 1
379 6 26
267 5 12
287 4 22
350 3 2
395 1 11
181 14 18
325 8 19
260 16 16
432 8 18
31 11 5
438 9 0
66 2 10
186 8 12
173 12 8
471 16 25
356 9 28
61 6 21
6 6 7
349 9 20
448 2 25
286 11 6
179 5 8
227 2 18
29 1 17
211 9 4
65 6 4
442 15 20
201 6 4
439 15 25
86 2 18
469 4 2
360 0 2
15 10 17
122 4 2
173 4 20
444 11 27
91 15 21
350 5 14
344 2 2
204 0 4
48 16 27
3 10 15
42 11 20
308 10 5
221 15 25
130 3 22
483 5 18
172 0 6
484 2 2
103 16 1
260 1 10
66 12 17
73 3 24
210 5 8
364 7 13
158 6 8
159 15 7
317 12 23
65 9 28
291 2 16
301 9 23
198 10 20
344 16 3
388 1 20
41 7 10
258 11 13
208 15 11
53 8 25
17 7 23
8 1 14
331 8 3
2 3 3
108 4 22
254 11 1
79 5 18
140 2 26
242 14 18
122 9 8
130 8 20
172 5 8
125 5 16
125 13 25
1 2 14
313 11 6
268 14 20
135 15 26
429 2 12
242 8 11
336 9 25
242 7 13
175 4 24
93 0 3
427 1 14
80 10 19
451 10 25
409 15 23
62 15 17
372 2 17
282 2 16
78 6 7
259 11 2
31 8 20
260 6 20
433 14 15
194 7 14
294 10 14
245 8 25
292 10 8
95 16 6
497 14 12
224 15 24
367 2 3
108 4 15
209 14 25
140 8 19
63 5 21
40 5 12
87 1 23
131 6 11
340 14 8
472 15 16
418 14 7
268 2 9
436 15 14
369 2 24
458 0 2
463 0 9
347 5 24
470 3 7
291 9 6
386 1 2
117 14 4
316 12 24
54 8 2
330 16 1
92 10 16
429 12 14
17 15 22
88 15 1
441 7 14
288 7 9
110 5 5
52 6 20
343 16 5
346 4 27
126 7 21
342 15 12
384 0 23
470 11 11
451 5 21
409 12 12
336 12 9
330 12 26
303 5 9
194 14 5
94 2 19
342 1 27
67 14 25
32 15 5
196 15 21
448 3 19
478 3 15
114 12 22
460 8 10
102 15 27
469 11 14
466 10 18
398 5 9
472 16 0
197 16 25
6 9 11
210 8 23
496 2 26
323 3 27
378 13 20
253 0 11
40 5 1
277 3 25
377 3 14
43 16 26
54 14 16
375 11 4
426 15 1
434 15 26
218 3 11
239 13 2
152 8 20
287 9 24
228 12 0
148 1 11
283 9 3
21 14 28
467 13 19
25 10 17
158 3 18
95 12 15
445 9 3
424 2 18
321 16 11
89 15 27
24 3 9
493 0 28
252 2 20
165 0 24
56 9 2
6 14 14
441 10 3
322 1 6
182 11 20
199 3 9
114 3 18
497 6 9
200 2 21
262 14 14
73 0 28
155 3 13
478 15 15
453 2 0
195 12 18
179 7 16
71 13 17
451 14 9
321 3 14
454 2 14
287 10 15
161 12 27
316 10 20
204 2 0
86 3 17
329 9 4
273 16 14
224 11 18
324 16 17
447 1 13
427 14 10
318 14 14
468 13 5
38 9 28
458 3 0
344 13 19
52 1 4
60 11 20
26 13 18
402 9 0
234 16 9
273 1 4
467 4 9
344 11 12
495 14 20
50 1 21
226 10 13
381 7 15
79 5 8
231 7 23
226 13 17
203 9 24
457 6 26
243 11 23
484 16 3
165 0 28
181 10 15
348 4 16
430 12 13
180 15 16
148 3 28
483 0 21
487 4 9
129 1 25
400 11 20
305 16 27
124 9 10
185 7 7
217 6 1
160 4 10
186 13 13
109 8 22
393 12 13
327 3 7
452 5 17
165 10 7
191 4 7
23 3 1
0 16 5
447 13 23
126 4 1
255 16 9
55 16 16
41 6 0
316 9 1
266 1 2
163 6 1
51 13 7
300 8 16
404 1 7
121 13 5
158 5 27
315 2 16
407 9 11
236 11 4
499 7 12
180 11 12
201 8 9
108 8 24
279 15 27
37 6 15
434 16 6
268 1 3
164 6 3
328 2 0
102 9 28
99 14 15
102 7 10
27 16 17
243 13 24
123 15 10
380 3 19
247 1 26
295 15 22
340 3 6
315 11 14
492 9 16
355 14 7
452 1 24
131 12 17
428 15 6
179 7 16
407 13 23
177 12 28
180 8 11
410 3 5
331 11 26
277 1 23
302 12 6
127 15 13
56 10 2
133 16 9
158 9 8
448 0 25
49 9 17
307 2 10
107 15 15
33 2 7
205 2 5
459 14 6
4 1 27
468 0 5
53 2 3
124 10 18
144 15 5
132 11 12
91 11 9
440 5 10
402 11 14
267 1 15
54 2 24
368 1 10
461 16 17
111 6 18
73 12 25
76 1 27
138 5 15
64 5 28
283 8 9
258 7 28
425 10 8
493 14 3
92 5 13
322 0 12
16 8 8
402 1 16
407 1 4
474 14 16
208 1 6
312 9 0
292 6 1
361 12 10
162 2 15
336 16 8
101 14 6
72 11 17
181 9 10
53 11 27
296 7 14
402 12 5
249 1 11
393 7 19
273 13 12
421 1 23
213 13 17
396 8 17
129 14 5
15 11 0
124 2 24
324 0 23
451 15 19
179 11 2
369 12 28
217 1 10
315 11 6
493 0 24
337 8 1
129 1 3
322 11 26
298 7 17
26 10 2
389 14 28
112 5 24
254 1 8
79 0 15
369 8 14
426 14 28
60 5 17
388 7 3
356 11 11
416 4 3
258 1 0
31 14 7
257 11 3
13 2 5
145 15 25
409 15 21
489 15 11
315 11 26
474 15 14
111 13 8
28 7 24
47 2 22
226 1 19
120 15 22
222 10 20
302 10 13
363 15 17
134 14 16
92 5 1
374 3 7
106 12 0
369 12 23
473 12 25
140 13 18
402 5 15
372 1 3
472 3 7
43 6 7
371 1 0
457 8 10
345 2 6
392 9 11
135 5 13
29 16 15
17 0 27
282 6 19
88 11 9
189 13 8
103 6 25
95 15 17
254 6 19
110 8 21
398 4 10
135 16 2
28 13 11
330 15 12
443 5 2
105 13 0
218 2 9
211 12 7
391 7 15
247 10 15
418 11 5
460 14 19
31 10 7
80 16 24
392 13 16
200 15 10
432 9 6
315 2 16
230 12 12
245 10 5
330 16 7
139 12 10
229 0 16
317 3 1
460 0 25
189 13 16
497 7 17
108 1 6
207 4 23
162 11 0
477 0 24
174 14 0
38 4 23
129 10 17
161 16 8
311 16 28
320 3 21
253 9 17
415 14 3
160 3 27
256 4 10
224 14 5
455 0 6
434 6 22
285 3 14
361 4 6
129 4 0
257 11 8
420 0 4
458 8 25
312 11 21
273 15 26
132 15 22
50 13 27
308 7 1
257 7 6
9 8 7
443 8 17
311 4 0
135 10 5
29 7 24
432 4 9
82 13 8
393 16 24
433 15 22
297 16 25
144 10 19
42 16 13
301 6 10
254 2 23
383 0 17
363 2 28
51 1 27
191 16 23
127 8 2
342 0 26
218 0 0
141 6 24
340 9 11
279 14 27
487 10 26
40 3 26
234 12 3
226 9 0
78 15 10
495 9 24
210 11 27
0 2 22
220 10 3
355 14 19
165 1 15
150 6 17
55 6 13
51 4 0
333 15 10
395 4 28
454 8 27
257 3 3
443 15 28
164 7 9
343 1 0
88 9 28
118 3 27
491 6 4
272 9 10
137 16 28
44 14 10
149 7 15
70 1 0
301 4 1
72 14 9
39 5 6
71 7 17
479 9 22
60 3 27
454 0 6
4 15 1
318 9 16
343 6 28
486 16 1
280 14 3
340 0 17
392 14 0
452 6 13
29 3 5
389 7 26
309 15 11
351 8 3
352 2 7
478 4 1
469 10 2
485 10 2
410 10 4
216 6 9
190 11 23
2 12 18
48 9 8
149 13 12
8 12 14
232 11 24
337 0 17
451 2 17
191 6 11
350 4 1
490 3 10
47 7 8
298 11 26
470 11 13
252 16 6
343 3 15
185 15 8
444 5 19
10 2 13
411 6 13
16 7 0
250 14 17
451 8 6
45 16 3
415 5 22
466 15 24
264 15 18
282 6 28
78 15 0
475 5 15
474 3 18
73 3 26
236 9 9
145 12 4
141 6 3
418 8 26
19 12 21
385 11 18
276 16 22
428 8 16
386 11 7
66 5 8
445 9 14
365 3 23
401 7 28
451 6 23
174 3 19
369 10 25
285 7 16
392 7 24
362 9 3
185 1 6
259 12 23
169 4 13
80 7 24
342 2 3
372 1 23
488 1 21
206 8 8
342 8 23
73 8 3
267 16 17
15 6 20
70 4 15
466 7 6
458 14 24
446 8 24
236 2 7
271 8 28
314 11 16
398 10 12
293 0 8
163 7 13
76 10 21
21 1 15
407 10 8
270 0 10
238 10 18
128 14 18
170 10 19
261 13 28
136 9 4
424 9 18
381 8 3
39 8 14
247 0 7
434 15 3
332 11 20
223 4 27
203 16 11
79 11 13
182 16 28
199 6 28
160 11 14
20 9 0
97 8 25
158 13 20
268 10 7
492 14 2
497 13 12
153 7 27
140 0 26
475 7 12
336 13 13
350 9 20
311 9 4
185 15 1
498 2 5
249 9 14
337 10 11
480 3 17
499 15 20
304 7 8
275 13 19
415 1 6
316 16 8
467 8 28
438 15 24
288 4 1
292 6 28
331 0 17
436 16 7
167 13 16
178 11 17
149 2 12
117 4 16
485 6 15
19 12 15
162 12 13
190 2 13
437 12 2
197 8 11
251 1 5
397 2 18
35 4 10
73 2 4
96 1 19
241 15 7
286 5 22
316 11 18
127 9 4
418 3 25
105 10 18
84 14 21
172 10 19
192 1 25
185 2 21
412 13 2
351 6 24
108 9 23
173 6 15
226 8 12
379 15 3
49 13 21
137 2 6
58 16 8
61 13 19
264 1 11
413 7 20
178 9 22
398 2 22
130 12 26
76 10 23
431 6 9
344 15 25
34 11 12
365 9 25
246 8 21
370 7 0
373 15 21
58 2 17
387 10 8
140 16 10
313 14 28
386 9 0
130 11 6
195 4 26
62 4 23
221 5 18
193 5 24
193 14 14
38 16 14
381 14 7
364 7 22
372 9 0
447 12 9
36 14 3
401 14 6
17 13 0
391 2 22
315 9 10
392 3 23
356 7 10
281 6 17
335 7 22
398 8 8
407 2 3
415 5 19
9 7 10
323 12 25
459 0 11
256 3 5
115 4 17
94 14 12
468 3 10
21 10 24
212 8 15
320 4 15
274 16 7
348 3 24
139 5 2
281 16 2
192 8 2
423 4 24
459 13 27
163 14 4
133 13 20
70 2 7
298 15 1
138 11 6
46 0 4
455 2 19
211 8 17
457 13 18
96 15 14
126 0 26
272 6 5
397 0 17
111 4 17
315 1 14
269 9 6
0 16 16
474 11 16
475 11 5
457 3 25
166 14 24
238 3 20
204 4 22
480 2 8
312 6 22
379 2 14
304 7 24
190 5 23
402 1 7
240 15 14
371 9 16
213 14 4
308 13 0
306 13 18
401 2 26
237 1 2
51 6 17
121 14 0
72 6 7
125 3 3
143 2 1
249 7 28
437 10 20
79 0 26
332 2 15
323 8 28
426 15 20
205 1 20
199 8 6
345 3 7
157 13 8
465 7 21
187 9 26
19 5 6
186 2 10
97 0 24
239 8 28
52 13 26
471 10 5
257 12 6
384 0 0
428 9 13
406 5 1
207 4 7
208 6 2
357 11 10
459 15 15
51 15 8
273 9 10
160 1 21
26 13 28
94 9 23
199 14 20
15 13 3
276 13 7
81 3 11
203 15 14
104 2 14
354 0 22
135 14 26
69 15 13
319 14 5
465 4 26
401 3 20
92 7 19
330 4 27
458 5 8
475 1 3
214 13 27
402 9 8
178 0 18
355 7 10
156 4 1
38 14 11
465 16 12
263 16 19
0 3 13
70 0 8
303 4 8
320 14 27
291 0 28
28 0 25
264 0 10
160 10 2
350 5 3
167 2 19
492 3 9
235 2 21
117 9 0
209 4 7
116 12 25
134 4 25
484 2 9
469 13 3
103 5 16
414 10 8
167 8 19
130 5 6
174 8 15
37 16 11
325 5 10
112 16 28
47 2 11
134 8 27
247 3 3
49 5 15
399 2 14
461 5 15
48 16 16
51 8 0
31 4 10
6 3 14
442 6 17
35 5 1
396 4 6
372 10 19
296 12 17
45 10 0
224 6 4
131 5 21
278 3 17
93 2 3
147 7 28
35 4 15
46 4 2
184 11 24
315 8 17
33 10 7
49 4 0
328 2 18
151 14 6
211 12 12
136 13 19
434 3 23
485 1 4
375 5 8
290 4 2
137 5 24
473 10 22
136 4 0
441 11 4
224 15 0
282 7 25
457 0 13
413 10 24
434 3 8
198 6 16
288 10 20
216 14 8
62 16 0
402 11 11
493 11 21
495 2 25
400 13 19
293 13 19
430 6 19
84 12 13
175 3 3
382 12 9
170 15 14
228 11 13
275 16 3
372 7 21
433 5 7
188 14 5
189 0 3
191 16 2
493 11 10
18 16 24
172 1 3
366 6 13
385 8 2
496 11 8
337 7 24
230 10 26
401 3 15
245 4 0
426 5 24
109 15 16
475 0 22
264 7 3
200 10 28
242 8 4
175 5 24
177 9 16
475 4 9
317 9 8
168 12 0
151 4 12
473 4 21
125 5 2
121 2 28
45 5 8
270 5 21
482 14 17
149 13 10
499 12 0
269 16 23
151 14 22
34 11 21
266 12 11
219 0 22
172 7 12
60 1 19
256 8 10
455 6 2
92 2 12
450 8 16
329 4 26
157 11 6
231 0 20
6 1 21
71 16 26
11 12 24
251 16 0
167 13 20
335 11 13
355 9 5
392 9 23
355 16 3
30 11 8
429 1 16
404 0 3
63 10 25
193 4 9
56 4 26
292 3 17
311 5 18
63 8 4
139 6 7
142 8 8
179 13 21
471 0 24
37 3 5
398 16 11
271 13 14
490 16 3
465 1 8
121 10 13
97 8 14
410 5 27
216 14 6
332 8 14
461 5 28
244 9 9
119 2 27
224 2 28
90 15 17
81 12 13
273 12 6
109 13 28
356 7 13
228 4 20
216 15 11
117 15 17
57 11 13
214 1 2
319 6 9
277 8 18
380 2 10
350 16 10
330 2 9
228 13 1
241 12 5
171 7 9
84 16 9
466 5 17
389 16 8
195 2 18
74 7 1
112 3 26
221 9 13
81 7 4
140 13 25
343 13 23
431 4 5
367 3 21
216 6 6
245 0 15
198 15 16
129 16 14
158 9 1
471 8 5
293 15 12
480 8 17
325 6 3
204 9 20
48 5 6
5 12 16
196 8 25
73 2 27
322 8 4
309 13 8
446 16 14
263 5 3
164 9 18
5 8 2
10 6 2
211 0 3
37 6 17
94 6 7
308 2 0
398 4 18
82 15 20
288 3 1
410 16 14
360 15 18
12 7 12
2 10 13
66 13 2
189 8 18
379 3 4
294 12 15
134 0 4
395 15 18
46 15 7
247 0 9
68 2 15
140 13 14
361 7 19
314 16 11
263 2 23
484 5 24
115 14 2
363 5 10
160 2 19
391 12 23
28 12 7
215 10 13
162 8 27
382 11 18
102 10 24
135 6 20
15 7 21
348 10 15
321 11 18
331 12 23
452 4 19
141 11 6
309 8 6
184 5 18
3 4 14
218 4 18
151 10 18
494 4 22
19 14 21
214 8 2
254 5 3
216 16 14
79 4 17
442 16 2
205 12 15
238 13 21
46 3 14
476 13 25
241 10 16
412 10 23
217 13 7
43 6 1
44 15 25
144 8 23
81 7 8
144 16 17
224 10 12
494 15 1
364 10 27
376 10 8
466 11 22
358 11 3
140 0 6
110 6 27
435 5 13
429 9 4
430 8 25
284 16 11
168 6 24
247 15 9
329 14 21
173 14 2
312 14 2
301 8 2
309 13 5
166 12 13
174 13 20
227 15 10
14 14 22
179 1 26
193 6 12
334 11 23
431 11 8
442 11 2
55 4 27
236 9 16
6 2 7
74 15 5
303 1 16
74 2 18
342 1 6
429 12 21
424 10 23
370 1 9
289 1 7
355 0 12
10 10 11
226 6 23
323 14 7
127 3 4
215 14 10
174 16 13
273 12 27
431 12 25
374 9 0
143 3 9
33 2 5
406 2 17
241 16 4
85 7 17
81 0 16
387 2 23
470 12 26
482 1 7
186 4 5
96 13 21
39 2 15
37 9 10
367 10 18
163 7 5
497 3 10
4 9 5
257 11 7
497 2 15
487 0 16
221 11 8
162 10 5
127 5 15
162 5 19
41 10 5
226 7 1
278 5 20
210 16 8
496 13 15
256 2 23
62 14 12
351 3 22
109 14 25
344 15 15
294 11 12
265 8 0
463 16 10
109 13 4
61 12 24
79 5 17
186 5 25
437 12 0
307 14 5
106 3 10
195 15 23
293 11 4
318 14 3
222 12 24
140 13 19
239 3 21
108 1 8
329 6 27
113 10 14
467 5 19
342 7 8
28 8 10
320 12 20
254 16 9
55 11 6
205 13 14
36 12 27
378 13 18
55 6 10
412 2 1
294 8 18
156 12 5
4 2 22
486 5 16
368 13 5
402 16 1
321 4 9
34 16 15
253 8 9
210 15 5
161 15 4
497 10 25
458 6 15
108 4 4
359 6 8
149 1 27
63 13 15
236 14 11
329 8 18
7 12 2
103 9 26
357 7 15
78 6 25
250 1 26
480 1 18
93 15 15
66 8 10
384 13 11
219 3 5
436 3 13
311 6 28
486 5 14
17 8 27
203 11 2
247 14 14
28 7 6
155 8 3
211 11 1
455 10 25
359 9 0
466 11 27
100 7 23
38 13 21
89 11 0
177 9 11
328 2 24
19 8 18
211 1 12
82 13 10
18 15 26
266 8 4
460 2 7
99 11 6
431 9 0
81 11 23
482 5 5
420 13 28
498 9 22
208 13 6
62 13 2
72 9 24
420 16 2
146 3 11
256 1 16
325 7 9
39 15 7
273 6 10
396 6 15
33 6 23
233 6 6
413 7 7
84 15 26
85 8 0
273 9 11
102 6 14
388 1 14
305 0 7
169 0 4
446 14 22
96 5 0
233 4 7
174 14 0
64 10 8
12 8 22
358 13 17
233 11 15
258 8 18
382 6 9
12 12 21
294 11 16
168 10 10
190 14 7
223 3 16
16 8 1
291 2 9
165 9 18
493 2 21
39 13 17
373 12 2
480 13 6
61 1 14
108 4 24
310 1 14
248 3 10
346 8 17
465 4 0
310 4 13
37 15 16
395 9 28
39 12 21
203 3 2
251 15 7
276 15 13
114 8 14
407 15 14
367 8 5
492 0 23
251 5 23
180 13 8
118 9 0
106 7 17
380 14 28
420 14 22
350 8 9
400 9 1
107 4 21
388 15 6
413 5 28
19 13 12
399 15 6
374 6 11
50 15 3
150 14 0
424 12 16
426 7 22
397 6 25
463 15 16
482 5 5
407 1 4
309 8 5
103 12 19
42 15 2
265 6 17
380 7 18
201 12 21
69 12 2
18 11 7
115 9 4
462 2 5
420 9 22
84 15 21
365 4 7
27 6 3
220 8 16
229 4 27
257 7 7
437 1 4
269 11 5
497 1 8
460 11 23
131 13 28
134 16 1
145 1 25
263 0 6
64 8 20
213 13 5
202 0 13
84 11 13
125 12 20
201 16 2
425 5 14
110 9 27
185 4 10
478 1 13
23 7 3
445 3 14
223 1 0
89 10 16
159 12 25
224 1 13
82 7 19
119 12 19
369 1 8
305 15 11
80 12 20
352 8 14
148 7 22
260 14 20
264 3 20
275 0 8
90 10 9
21 5 4
282 12 8
79 1 6
92 0 4
156 0 17
416 3 16
451 12 24
246 1 5
372 4 13
497 14 14
70 7 7
189 4 25
480 1 1
1 15 7
342 16 23
282 8 1
167 1 3
282 7 18
46 10 21
133 1 19
51 4 2
17 11 21
174 11 0
100 0 10
130 1 7
42 4 16
383 10 8
19 0 18
338 1 28
417 6 21
91 12 20
53 8 27
69 11 27
151 9 17
391 5 20
161 14 22
148 13 16
172 14 4
62 9 27
330 6 21
330 9 17
223 11 11
105 8 23
310 2 3
92 8 10
9 5 17
324 16 27
258 16 17
23 6 18
47 10 8
129 3 11
278 6 27
331 16 2
284 1 15
355 14 17
4 2 17
38 5 0
171 14 21
492 3 4
474 6 9
105 16 0
30 1 6
382 15 22
186 12 10
338 10 1
145 7 14
46 1 17
338 7 6
42 15 13
151 11 15
414 7 2
388 7 3
36 15 28
422 10 16
395 10 12
189 2 16
249 5 9
272 5 21
310 10 10
86 3 18
248 1 2
413 12 25
352 1 11
476 9 25
183 2 19
250 10 19
378 15 11
474 9 25
235 6 7
198 13 3
424 6 19
433 15 4
308 9 10
342 15 8
5 14 19
203 12 17
316 12 4
397 15 25
341 0 28
145 4 26
25 16 26
20 8 13
319 3 6
19 6 15
75 14 4
189 12 1
97 0 7
15 5 26
390 11 5
452 10 1
380 6 9
310 14 21
337 14 10
0 1 22
45 4 16
143 13 19
111 7 6
137 7 12
403 2 21
66 13 8
436 16 25
333 6 11
0 15 0
106 12 23
327 4 6
192 4 4
14 12 10
234 13 9
251 1 26
266 10 26
392 16 28
147 0 9
165 4 16
301 11 5
37 0 15
486 16 12
40 14 27
97 14 20
440 10 26
269 8 11
85 15 18
315 0 0
311 10 28
392 10 4
41 12 9
157 4 17
361 14 21
239 15 13
498 3 6
14 8 16
36 3 6
1 6 0
362 16 9
261 9 2
107 7 25
492 1 14
172 14 14
19 11 3
157 10 14
321 9 25
147 6 23
338 9 6
138 13 20
444 14 21
414 14 6
365 0 17
271 10 12
218 9 11
32 9 21
195 10 7
223 0 18
217 9 19
39 10 4
227 4 6
74 10 2
207 6 24
368 7 18
457 1 8
272 3 24
259 16 9
114 14 10
305 1 15
330 5 17
162 1 17
243 5 6
145 1 16
204 0 13
377 14 24
489 5 17
366 13 13
379 9 16
420 11 11
269 14 8
426 0 17
335 12 7
180 5 14
106 13 24
436 15 2
171 0 19
305 3 6
159 12 5
9 7 5
313 8 2
418 2 24
86 13 22
155 2 9
337 12 6
43 2 16
86 5 26
201 14 5
72 14 21
239 6 7
108 8 11
285 1 8
282 16 0
98 11 20
318 16 23
122 8 1
320 11 12
339 16 27
56 3 21
377 1 19
319 10 21
402 16 17
136 5 17
68 7 9
62 4 23
33 5 25
457 14 16
90 4 20
331 15 5
2 9 28
39 2 10
39 6 26
152 2 14
218 14 13
197 12 5
169 9 28
460 3 23
102 0 18
219 3 18
418 13 24
373 10 9
254 2 9
14 0 6
79 15 10
332 4 23
21 5 4
331 1 15
309 1 14
55 16 1
244 4 9
283 2 18
297 2 7
312 13 1
52 7 1
28 4 26
31 11 26
217 16 14
222 2 1
69 10 18
253 6 28
291 4 7
230 0 25
295 11 20
265 7 15
247 11 16
251 3 16
473 2 21
440 5 1
3 4 26
2 7 4
51 10 5
360 10 7
108 6 15
418 6 11
249 5 27
165 7 26
370 12 18
308 16 2
35 12 9
298 14 22
78 3 0
246 6 28
213 4 20
471 9 22
389 15 7
69 2 24
480 9 10
307 12 6
18 10 15
8 10 6
423 9 12
204 4 4
37 8 11
71 9 10
60 3 3
142 3 2
180 7 17
442 9 17
148 16 13
240 3 11
216 16 12
272 11 27
120 8 24
9 5 20
32 6 8
383 14 12
111 16 22
373 1 18
227 4 10
0 0 20
192 2 14
156 9 16
129 8 17
289 14 10
23 14 1
350 0 25
273 16 25
64 6 27
288 14 24
115 16 12
5 3 2
186 12 14
386 16 12
72 4 28
498 10 9
274 11 0
473 14 24
102 2 12
100 10 8
5 2 15
91 8 27
444 2 28
49 8 1
359 6 13
225 7 21
71 1 22
218 15 16
342 10 6
283 7 0
382 13 23
182 4 3
301 14 16
71 12 22
428 15 10
20 8 16
107 2 10
20 12 9
482 0 10
387 11 4
67 9 26
2 4 7
399 15 2
36 0 11
93 0 28
205 16 11
340 6 20
50 0 4
250 10 20
183 10 14
52 8 6
227 0 27
442 1 19
301 6 12
27 0 23
145 14 3
121 3 27
423 12 26
480 4 12
61 9 8
25 0 16
329 15 5
226 0 8
459 10 11
80 1 9
447 13 4
137 2 13
129 11 6
221 11 9
148 14 25
20 5 0
347 16 5
16 3 2
434 9 8
333 6 28
292 8 19
105 5 18
12 7 1
340 0 8
15 7 3
75 6 13
345 13 3
378 4 27
354 3 10
45 8 25
412 9 25
66 11 28
342 2 26
332 2 7
28 1 9
397 12 25
276 2 13
204 15 7
197 10 27
287 12 16
226 11 23
370 4 24
107 13 5
281 6 1
409 2 9
442 9 2
480 10 19
215 8 22
462 7 23
268 16 12
150 0 18
313 10 9
271 2 3
136 16 14
320 4 11
257 3 5
159 4 24
488 6 15
122 9 3
442 1 25
340 6 24
394 4 13
189 5 22
241 2 21
175 3 8
177 0 0
109 13 24
207 5 21
397 10 3
186 9 0
217 5 0
302 5 17
97 2 11
367 8 7
341 6 20
333 9 3
381 12 6
371 0 25
224 12 9
423 3 15
241 14 15
91 10 18
477 7 23
467 14 19
294 15 1
140 10 14
27 15 14
126 6 14
193 3 4
394 14 9
185 5 8
80 9 7
118 8 6
360 4 3
32 4 10
331 3 8
372 1 1
258 1 15
498 14 3
25 7 27
279 1 6
320 8 12
103 16 8
358 15 1
131 5 8
433 7 25
450 1 28
245 3 13
137 0 21
397 0 12
220 3 3
100 3 12
385 14 21
169 4 4
497 7 6
144 13 21
1 12 20
111 4 14
413 14 17
337 9 24
276 7 3
360 8 15
214 6 25
108 15 28
188 4 23
100 2 1
471 6 12
218 14 0
359 9 17
91 10 23
281 11 23
191 9 20
99 1 24
494 13 5
450 0 25
393 15 0
334 13 0
92 9 3
243 11 18
446 14 21
337 4 6
197 8 25
441 7 26
303 2 16
292 16 16
99 14 2
51 15 4
423 6 23
354 15 10
78 6 10
138 5 2
128 4 11
8 10 4
119 15 0
396 5 13
317 2 25
124 15 14
62 8 25
172 14 13
386 1 9
256 8 7
105 16 16
304 6 10
270 7 17
352 0 0
133 13 23
237 15 27
196 6 9
155 11 9
34 14 22
34 14 20
339 9 11
215 5 15
241 3 24
493 0 8
192 13 5
54 14 24
392 11 6
240 8 23
110 11 7
133 13 10
115 13 24
249 6 11
89 8 0
438 14 24
66 0 22
424 12 0
474 2 16
67 9 17
484 14 21
431 5 16
420 15 21
376 11 27
143 12 5
169 11 7
56 3 16
354 13 22
203 5 23
326 15 23
411 15 8
489 10 6
111 15 19
147 9 19
305 4 21
74 15 0
282 15 11
114 1 12
27 13 15
458 16 8
473 2 3
418 8 8
235 4 28
440 2 0
329 13 20
175 0 7
164 15 0
59 11 3
262 11 2
2 3 26
323 6 15
230 15 1
392 10 3
179 12 13
6 3 24
232 13 15
462 10 24
236 12 20
68 1 23
242 6 5
209 8 20
462 0 27
29 8 23
178 10 0
341 1 28
414 11 8
202 13 25
285 6 18
369 2 3
176 15 2
171 16 28
489 13 7
182 12 28
201 9 17
56 12 2
196 12 17
371 14 20
224 14 13
147 7 11
309 2 4
430 3 11
340 8 26
86 5 1
397 7 6
100 0 2
478 5 17
433 0 6
29 10 15
234 7 10
125 6 25
54 12 25
473 15 12
194 14 26
271 3 0
397 12 11
7 2 6
404 4 28
174 4 22
364 7 22
292 13 20
334 6 26
183 1 22
87 1 28
324 11 26
273 2 20
462 0 15
58 1 1
143 10 16
429 2 11
92 9 25
182 12 18
72 12 10
460 10 12
155 6 4
459 15 7
420 6 2
212 4 1
23 11 28
90 7 20
169 11 6
44 3 5
212 16 25
484 16 18
324 14 15
240 7 22
264 3 19
209 12 2
208 2 19
147 1 5
273 7 22
102 9 6
109 15 7
301 16 6
271 13 17
342 15 2
338 0 7
413 1 27
330 16 27
451 9 20
344 16 5
229 15 13
355 7 18
268 14 26
176 4 11
402 8 28
174 12 6
116 2 2
223 8 28
122 6 26
144 11 8
469 7 1
247 10 20
393 16 18
130 8 19
59 15 10
393 13 18
470 8 18
333 9 26
15 0 15
456 0 13
78 12 9
67 4 6
201 1 24
319 2 18
184 3 27
212 2 8
102 3 25
100 2 27
183 10 0
193 12 11
173 11 3
181 6 25
38 1 12
472 13 27
252 8 24
397 3 9
475 3 4
131 10 0
209 9 8
301 6 27
12 5 1
302 10 23
162 1 4
55 16 23
193 1 16
272 8 1
204 16 16
96 9 25
43 14 23
255 9 20
213 13 28
375 11 25
372 1 8
419 1 15
428 14 0
77 12 24
183 2 12
407 16 6
136 13 0
374 5 13
79 13 28
198 8 14
389 3 22
358 7 2
160 12 23
285 9 3
336 11 20
452 4 7
58 11 5
266 16 25
364 9 13
217 5 10
353 15 8
90 16 14
364 7 0
81 3 5
272 15 20
287 2 22
73 13 3
173 0 12
160 9 14
187 9 7
54 11 6
30 4 16
364 10 7
197 4 13
21 4 1
106 8 10
290 15 13
391 2 12
314 8 8
120 12 2
11 12 15
248 14 17
489 1 13
397 16 3
441 7 2
19 11 20
70 1 10
8 14 22
195 7 17
330 15 15
184 5 2
106 4 8
405 15 25
235 12 27
370 10 18
7 14 3
373 16 8
84 0 14
43 4 6
182 9 12
60 2 26
172 8 25
142 13 17
435 11 12
58 8 14
282 1 5
197 12 0
203 16 4
284 6 7
334 16 15
108 3 15
492 10 22
303 15 4
4 1 3
90 12 8
142 0 14
264 3 19
282 14 9
359 15 5
174 9 17
95 12 0
79 12 1
249 14 10
172 15 5
218 15 15
98 1 12
79 11 5
211 3 24
150 16 12
326 9 20
220 9 10
1 9 3
20 8 5
133 4 1
430 14 3
48 0 16
117 8 16
59 1 7
151 4 24
231 9 21
234 6 15
36 2 26
91 13 19
343 1 8
193 14 28
385 0 6
36 11 21
257 16 18
50 6 26
64 10 21
457 13 7
6 11 21
131 6 11
279 10 28
117 12 11
192 9 1
130 7 12
170 9 22
489 12 24
266 12 5
174 12 24
438 7 23
437 2 13
330 8 19
358 16 12
377 9 8
224 16 9
271 16 11
373 0 5
421 15 17
51 11 8
126 2 2
499 10 12
432 10 13
438 0 19
216 3 6
332 1 24
69 0 28
398 12 14
225 3 28
262 11 4
239 5 26
471 16 2
4 12 15
340 15 21
201 15 5
321 7 3
11 7 11
269 14 5
77 0 15
201 16 26
440 11 24
429 4 28
100 4 2
252 12 19
187 5 7
429 3 20
93 15 12
181 15 8
453 11 17
319 2 9
271 1 16
45 10 27
394 6 23
226 11 15
87 11 23
425 14 17
354 16 24
286 7 7
491 1 13
472 16 20
353 6 0
401 3 19
63 2 23
359 1 24
115 15 13
422 6 11
127 2 26
370 3 7
44 3 9
51 9 26
77 12 23
418 8 21
197 4 7
312 10 0
251 16 22
450 5 13
413 0 5
129 5 28
356 11 8
311 14 21
389 11 3
113 10 2
18 6 25
255 6 4
111 12 26
349 1 27
201 15 3
431 3 18
192 7 5
36 15 15
342 13 14
281 13 23
264 6 6
4 9 19
174 1 20
430 6 7
231 12 12
242 11 23
346 11 26
251 1 10
278 6 9
182 9 2
61 3 13
442 8 22
196 13 17
137 0 21
88 2 27
43 2 21
167 14 19
391 11 7
119 16 26
473 8 26
315 16 3
76 11 23
79 10 18
282 1 6
422 4 27
95 2 3
107 4 8
435 16 28
362 9 4
476 7 17
75 3 24
77 13 15
404 4 3
153 9 11
95 0 27
345 9 18
187 2 13
329 2 20
152 4 4
427 12 25
269 2 15
156 1 21
52 4 26
180 2 14
291 6 25
128 14 22
65 15 15
270 11 19
430 3 28
189 4 12
221 15 13
380 2 19
419 1 3
194 6 2
379 10 9
201 11 5
46 12 1
478 3 1
271 1 24
17 2 27
191 2 8
413 5 4
396 0 6
335 14 27
37 6 6
463 9 26
231 10 27
118 16 24
266 9 27
375 14 28
351 7 4
336 12 28
144 7 14
258 0 8
208 2 5
138 10 15
32 3 23
426 12 10
394 2 12
95 11 19
3 11 10
35 3 9
383 4 5
94 9 13
328 14 24
118 5 17
351 6 26
65 12 26
268 11 21
302 5 4
289 15 26
362 9 27
202 1 27
70 15 13
273 11 4
259 3 14
251 3 2
92 3 10
368 5 11
113 4 12
196 0 13
239 7 20
254 16 20
397 5 21
99 13 9
60 4 18
318 6 2
424 1 16
164 4 25
86 4 13
46 0 10
210 4 18
6 2 4
480 3 22
210 11 17
33 16 8
118 12 7
161 13 9
437 15 18
404 12 4
446 4 5
157 11 8
392 11 7
252 4 12
112 4 9
84 11 20
428 14 3
279 3 26
450 5 7
236 11 22
177 9 0
45 13 9
149 12 27
440 6 6
181 12 2
0 10 1
403 9 18
424 8 2
303 12 25
249 14 9
126 10 10
76 4 20
247 10 28
32 11 20
380 11 19
116 5 17
186 11 7
460 3 19
309 8 19
301 12 12
84 5 4
223 14 12
7 7 0
427 1 22
445 11 10
75 4 25
333 5 7
4 4 16
345 1 11
50 9 6
361 12 8
130 6 4
211 6 21
483 6 7
242 9 15
165 8 28
459 10 25
16 6 17
393 11 16
1 6 14
219 8 18
425 2 18
56 4 7
277 10 15
485 3 24
207 8 10
387 7 6
70 16 13
183 9 25
496 8 25
368 7 16
181 9 8
249 14 16
6 16 3
450 12 9
280 7 11
443 8 8
316 8 28
475 16 12
296 6 16
262 5 8
456 3 24
32 7 22
47 3 11
405 14 16
344 5 10
40 13 17
261 8 22
424 9 3
289 3 27
477 16 22
231 7 2
254 1 28
364 3 12
283 1 11
487 9 27
2 0 10
106 10 10
109 15 4
13 14 2
452 8 9
110 13 16
204 5 23
107 10 12
395 11 10
210 15 13
342 8 23
178 7 9
16 0 20
65 0 12
340 15 7
337 16 24
176 4 24
106 6 15
328 14 8
301 6 13
79 12 20
400 6 12
51 1 24
243 10 12
418 10 6
143 7 13
134 12 12
342 2 15
228 5 5
81 4 19
333 0 8
417 3 22
300 10 24
326 1 26
448 12 23
151 5 1
128 7 16
124 6 1
174 5 11
49 10 17
496 4 8
273 2 12
322 12 18
368 11 9
426 8 0
13 13 28
428 13 26
420 1 8
344 1 3
336 9 8
437 5 15
244 9 6
434 11 13
273 16 23
228 11 6
288 12 3
292 16 27
376 3 9
411 1 6
354 12 1
95 7 4
192 11 12
429 15 9
189 15 13
137 4 13
191 4 12
127 13 16
231 14 27
230 4 23
209 1 8
80 0 20
141 1 24
31 15 20
105 13 26
98 2 15
388 12 13
68 9 4
452 16 13
433 1 12
251 15 13
277 7 28
209 8 14
367 11 0
266 13 12
54 2 9
436 16 13
471 1 27
237 7 3
406 13 15
264 7 16
428 15 9
74 7 6
440 15 13
416 12 24
486 8 16
345 4 5
32 11 10
253 13 21
187 2 24
38 8 10
157 8 8
391 4 20
169 10 9
182 2 6
487 2 5
95 0 16
451 3 18
65 16 10
469 1 23
275 9 24
243 6 12
452 13 20
247 12 7
13 3 25
447 12 14
299 8 24
406 8 26
215 11 25
125 6 13
95 14 28
126 6 14
58 11 0
375 11 13
97 5 2
483 8 10
71 11 4
118 10 24
335 15 25
257 4 14
288 10 27
494 16 28
398 9 21
194 10 14
45 14 10
133 9 2
135 8 6
360 10 21
110 8 27
229 16 20
15 9 1
290 4 5
477 10 3
445 2 14
58 3 27
283 14 17
265 16 13
323 11 16
312 8 6
341 12 26
287 0 4
480 3 16
33 13 12
325 1 24
488 6 11
11 9 25
309 5 5
77 5 17
79 15 18
131 14 23
26 10 2
346 0 22
302 14 14
229 12 14
175 14 15
6 16 26
400 3 26
109 15 3
125 8 9
154 15 22
490 14 11
351 4 27
142 14 0
323 10 8
156 4 10
317 13 23
16 12 26
170 5 16
207 6 18
464 12 27
312 0 6
91 16 8
179 8 28
270 7 7
382 13 10
387 6 25
258 12 4
165 10 7
384 7 13
204 16 21
462 13 19
29 15 24
201 5 2
90 7 27
24 15 4
396 3 21
271 9 3
144 11 8
34 4 15
180 2 23
443 5 10
378 14 3
54 5 2
309 10 5
140 13 6
496 2 17
8 9 22
336 11 12
190 3 27
454 2 19
308 2 1
160 8 8
348 10 13
270 13 28
272 15 16
176 9 22
143 14 27
200 13 12
50 11 20
238 5 27
285 4 11
484 2 25
344 11 20
8 7 2
53 0 26
36 9 19
411 9 0
320 2 6
128 2 24
38 10 13
379 8 0
374 1 25
45 8 8
52 2 28
98 16 27
162 4 17
493 5 1
367 0 10
336 11 15
172 3 3
356 7 6
436 0 7
262 7 20
20 10 9
6 5 15
379 16 6
298 12 21
324 6 19
475 14 15
164 15 16
22 15 3
201 2 19
267 10 22
166 0 22
451 16 8
464 16 13
191 1 7
490 3 13
147 11 16
145 11 10
227 10 1
3 10 13
215 13 21
165 2 4
48 6 9
203 12 26
392 12 26
42 3 1
472 6 9
128 12 10
39 13 1
191 9 13
206 7 13
175 2 14
492 9 0
473 1 22
411 8 26
298 15 9
339 16 27
284 5 21
204 0 17
183 7 25
309 15 13
94 0 21
368 15 0
133 1 24
110 0 0
484 16 20
138 12 15
16 9 24
142 9 15
336 0 19
88 4 28
238 3 9
179 10 18
471 1 26
236 16 24
365 9 25
185 2 16
148 16 22
139 11 12
103 3 2
120 16 19
454 0 22
345 8 5
490 6 18
146 2 18
269 16 11
228 14 3
291 13 19
330 0 4
74 2 2
322 8 26
171 1 6
23 15 15
29 12 27
422 10 24
402 0 4
250 3 17
352 16 5
332 9 22
436 7 1
34 11 0
177 12 18
271 13 23
322 15 12
253 0 6
157 4 15
55 14 12
81 12 8
202 9 11
253 15 18
343 13 0
249 11 20
185 7 24
219 14 2
291 13 18
457 0 17
100 1 15
479 9 27
160 11 16
4 13 26
57 15 25
156 0 0
480 14 12
48 12 27
252 16 27
186 11 18
46 1 15
121 0 9
401 1 22
48 5 4
124 2 25
329 4 10
185 13 11
273 7 22
373 6 20
219 15 3
277 7 17
32 5 22
117 2 25
400 5 24
143 3 21
197 2 27
224 3 11
158 9 26
440 5 5
436 1 8
479 15 20
408 1 10
455 8 2
491 8 4
451 7 19
468 13 22
158 3 9
435 13 4
498 7 7
245 5 21
60 12 6
318 0 17
150 8 21
71 8 22
195 16 12
246 8 16
279 4 8
33 1 25
185 15 13
52 16 18
33 7 23
275 5 27
438 14 13
351 8 17
196 14 5
381 9 21
186 15 20
394 5 15
210 7 5
51 12 3
191 15 9
254 15 28
254 6 0
435 0 20
39 12 26
19 7 25
382 1 21
95 9 2
123 13 4
265 8 10
357 4 23
198 12 20
487 14 18
247 11 7
432 16 17
168 3 11
365 6 12
316 11 6
475 14 6
142 8 16
351 5 8
257 8 20
425 14 4
218 0 17
276 14 1
314 5 8
231 8 15
89 11 14
487 5 9
325 16 22
19 13 14
284 8 11
349 6 27
15 5 16
379 16 23
386 1 10
407 9 0
91 5 24
275 0 2
179 11 26
292 4 19
443 12 22
203 13 16
352 2 8
53 9 9
365 1 12
379 8 20
457 4 24
248 13 23
324 4 17
307 16 18
9 9 11
226 10 6
456 4 18
266 16 22
161 14 27
182 7 5
65 16 10
325 1 11
98 2 0
175 16 9
43 3 16
156 5 26
347 3 12
424 16 24
257 5 4
29 8 5
368 14 24
340 14 21
60 5 27
488 14 28
400 8 10
357 11 21
212 10 22
347 5 10
158 12 12
250 16 7
134 9 14
265 16 4
120 1 9
278 12 18
30 7 28
282 13 4
245 1 1
79 9 1
36 13 27
311 7 19
97 4 26
402 3 9
196 15 16
246 10 8
488 4 18
359 16 10
170 14 7
418 3 13
360 13 13
28 15 25
213 15 20
294 1 24
247 11 20
347 13 19
98 12 27
421 13 16
318 5 21
363 10 24
261 10 1
262 12 2
77 9 9
50 15 6
89 0 11
158 2 11
469 8 22
494 10 2
390 6 12
321 11 0
218 5 8
407 4 23
202 12 6
351 5 20
404 12 19
28 2 11
242 2 28
425 6 3
351 11 2
121 5 24
400 8 23
389 6 17
78 7 15
376 8 0
311 16 24
175 13 6
144 5 8
161 16 23
196 2 21
12 4 0
376 3 14
205 2 0
223 11 14
87 7 27
78 1 19
400 16 23
332 2 15
410 11 11
449 7 20
37 0 11
54 3 21
259 2 10
55 3 17
432 1 26
482 16 2
221 0 23
341 7 11
7 16 0
186 2 25
456 8 23
281 15 12
24 12 3
496 7 17
442 12 8
387 9 5
283 16 7
176 6 0
92 15 11
439 4 24
243 16 13
167 4 5
238 4 13
401 0 5
131 14 24
176 4 10
124 12 8
136 11 14
224 8 14
37 5 24
165 2 16
140 7 7
146 8 24
371 1 13
347 12 23
140 3 15
103 11 0
224 11 5
292 7 23
53 8 16
138 11 8
453 12 25
100 11 18
385 10 5
104 12 8
292 9 17
241 0 25
308 1 21
166 11 21
127 15 13
376 16 6
270 8 15
282 15 7
144 1 4
116 16 26
102 7 15
238 14 13
146 3 1
340 4 19
235 12 6
423 10 16
447 9 21
354 16 22
251 2 8
166 9 25
381 16 27
248 4 25
114 5 9
97 14 5
95 2 3
475 12 14
64 11 18
69 16 27
415 5 23
280 4 0
274 10 5
375 9 6
192 10 7
236 14 6
493 0 28
43 14 18
177 6 3
273 9 7
34 10 11
191 0 4
78 12 16
200 2 12
72 1 10
478 13 21
102 13 9
365 9 25
367 14 20
372 4 2
378 11 6
200 8 8
128 12 7
41 13 26
321 15 9
39 10 19
378 3 9
316 14 24
83 13 16
218 10 16
283 13 10
303 15 9
390 11 22
82 5 15
69 11 22
326 4 22
171 15 16
169 13 18
228 0 14
35 15 5
37 8 22
442 5 20
384 13 9
111 13 11
245 9 9
85 14 28
285 5 21
152 12 26
458 15 5
493 10 25
30 9 4
427 0 28
213 1 22
212 0 27
248 8 6
315 13 14
125 13 13
213 14 28
88 0 16
388 16 17
498 7 5
12 1 21
2 6 14
190 3 8
139 0 4
260 7 1
399 13 16
426 10 13
273 8 27
70 4 22
431 12 12
364 1 20
113 15 25
456 1 15
231 12 6
409 0 19
236 3 9
404 8 12
100 4 21
414 7 28
75 11 24
183 3 25
232 11 4
417 7 0
408 0 10
190 9 26
219 3 27
138 2 9
419 10 28
175 1 12
161 10 2
170 16 15
467 15 19
384 7 19
394 12 0
436 16 8
372 1 17
228 16 16
399 13 17
117 2 21
114 3 13
256 8 27
153 6 17
352 14 19
3 5 21
305 0 10
245 12 21
179 14 24
467 4 16
329 15 20
255 0 18
268 1 11
258 13 25
58 11 6
488 15 20
148 9 23
487 6 15
222 3 25
284 15 22
258 8 0
26 3 8
245 12 6
269 5 24
243 13 0
440 5 20
401 10 27
16 1 0
97 15 10
240 0 0
66 11 10
214 15 10
319 4 24
378 8 17
338 14 20
78 7 13
425 8 15
5 3 11
390 1 16
352 13 14
242 9 6
171 14 27
73 7 16
376 8 26
71 4 6
258 7 1
404 16 15
321 1 6
405 8 21
47 11 7
186 13 27
319 15 21
25 7 11
466 5 16
158 3 8
344 0 16
416 10 19
185 1 1
168 12 3
309 8 21
78 4 3
343 8 16
17 4 24
494 3 19
430 0 25
322 9 12
210 4 6
22 10 1
109 8 25
108 3 18
26 12 4
238 4 28
144 13 12
402 2 14
386 10 25
468 4 1
31 4 4
272 2 12
172 12 15
261 3 13
447 14 2
253 3 4
248 3 21
332 0 14
392 10 9
452 13 20
60 2 8
74 4 28
224 16 16
293 11 11
332 6 19
94 12 16
141 11 21
224 8 19
490 15 18
400 14 21
321 3 20
271 4 13
61 13 0
435 2 3
33 3 10
0 12 28
444 3 25
345 4 16
158 4 9
37 6 5
56 8 8
420 15 22
207 12 11
440 0 9
477 4 8
346 4 17
9 3 24
342 16 5
364 16 7
464 4 9
413 12 21
393 4 13
14 4 17
405 2 19
430 9 0
174 12 14
76 7 2
78 9 0
394 6 0
373 9 2
56 7 16
98 3 5
343 9 3
122 3 22
363 6 2
400 6 1
425 16 19
62 4 24
288 4 7
374 7 16
286 4 5
269 4 0
414 9 15
4 12 27
12 16 22
349 8 9
98 8 27
123 4 5
307 12 28
119 10 0
279 13 28
488 16 5
243 7 19
392 7 8
497 7 8
42 6 3
20 6 19
58 5 4
124 7 22
348 7 21
300 3 9
223 10 21
452 5 21
265 11 0
322 6 18
341 11 27
383 11 26
132 2 24
116 6 19
371 3 8
116 7 11
282 16 3
253 1 18
114 9 0
326 7 6
375 16 15
207 12 19
32 8 8
477 15 26
146 8 5
27 7 5
461 10 19
26 1 25
311 13 18
139 7 5
251 15 11
398 12 1
448 1 18
211 12 16
495 8 3
237 16 3
375 12 16
172 5 15
154 2 25
76 11 10
82 11 18
60 14 18
466 11 2
173 6 12
478 9 3
40 12 6
200 15 4
401 12 4
287 10 8
13 7 15
408 2 6
200 8 28
69 8 18
407 4 1
465 8 8
222 12 22
477 1 27
338 3 0
316 16 22
429 3 8
472 13 27
460 7 12
463 5 23
22 5 11
343 3 15
444 2 0
357 9 4
217 4 10
13 9 11
175 9 5
492 0 28
494 5 26
240 12 23
338 15 11
103 15 23
75 1 27
420 16 6
231 10 7
15 10 3
28 0 2
362 13 0
245 3 3
306 5 19
481 4 8
7 5 16
77 6 13
71 5 23
104 14 10
185 7 5
381 9 25
201 10 13
99 7 3
144 5 25
164 2 21
219 2 7
87 7 14
203 2 26
387 7 18
334 2 4
405 13 24
499 15 9
327 2 9
6 9 24
433 10 0
439 7 21
411 3 25
430 12 5
222 2 9
70 4 0
324 8 24
480 10 15
298 8 15
239 6 4
356 10 28
287 7 13
154 11 20
493 16 19
36 5 0
219 4 11
58 11 19
348 16 1
276 13 28
204 15 10
436 14 17
132 1 1
315 6 10
404 14 7
225 10 6
265 13 23
434 10 12
438 15 24
179 8 22
453 11 17
495 16 19
413 9 14
285 10 15
384 9 28
11 3 0
194 4 27
32 0 24
176 6 3
58 13 2
453 2 16
426 6 10
407 16 11
478 1 0
145 1 19
244 1 19
212 15 14
452 15 12
222 0 0
182 6 25
51 0 0
118 16 9
482 2 17
132 8 15
373 16 14
75 12 22
100 15 4
483 7 2
23 13 4
206 2 20
2 14 4
459 11 8
376 7 15
399 5 12
373 3 7
107 0 15
289 12 14
348 1 15
215 6 5
217 13 6
117 15 21
269 1 6
488 5 5
39 1 9
114 10 11
472 6 12
498 1 10
313 5 15
232 9 22
346 9 27
338 15 24
241 11 13
386 5 0
480 16 23
265 3 25
164 4 3
438 7 1
208 2 11
82 12 28
322 9 13
227 4 22
52 8 2
176 1 26
202 1 17
153 11 19
110 0 11
493 3 17
119 2 8
378 16 18
107 15 25
381 8 18
274 10 18
404 7 19
401 14 13
333 4 0
181 3 22
365 0 18
423 6 22
284 6 20
463 8 20
5 16 8
90 0 13
271 9 9
161 16 28
456 6 9
411 6 3
350 11 9
302 0 28
30 1 3
82 5 24
323 9 16
116 15 6
388 14 9
45 10 16
434 16 27
404 12 20
53 12 18
52 7 0
323 11 13
205 15 7
378 0 3
450 6 13
150 15 12
492 9 20
182 2 14
493 12 6
432 1 16
308 6 23
423 6 15
143 7 26
260 3 23
336 2 13
366 2 0
408 11 11
170 0 4
35 4 8
369 16 18
435 9 21
107 15 20
103 7 7
486 15 22
163 1 21
488 13 14
153 8 4
270 16 14
486 10 12
69 0 6
102 3 19
226 11 6
499 7 6
362 5 25
414 0 3
28 0 3
16 16 14
51 7 8
446 7 15
230 6 8
191 3 26
426 12 1
290 8 4
308 10 11
172 1 2
3 15 23
112 2 3
32 15 1
375 7 21
131 16 9
116 5 11
240 14 0
56 12 3
474 15 6
412 1 14
274 4 21
22 4 22
440 10 3
136 7 15
400 6 19
404 15 7
193 1 17
370 4 13
206 9 10
76 6 17
51 0 6
458 12 21
74 0 3
420 0 27
184 13 12
3 0 18
457 15 23
238 14 28
148 4 13
413 8 10
300 1 10
275 0 23
413 3 25
9 15 23
102 13 18
417 11 3
192 6 2
326 7 14
195 15 27
252 13 9
462 6 16
365 7 20
498 11 9
330 11 22
237 3 16
183 1 16
60 10 8
51 2 1
240 0 0
322 3 2
409 1 3
262 3 7
277 7 2
213 14 5
269 1 1
255 9 19
219 3 18
317 1 1
407 12 15
483 5 3
129 8 15
375 8 16
435 13 15
446 5 27
208 14 5
288 2 22
59 6 5
313 5 20
339 12 26
247 9 1
366 1 8
477 5 12
151 13 28
386 15 10
390 4 14
358 2 18
131 13 21
323 14 27
290 11 17
408 3 1
464 1 10
110 12 11
133 16 20
386 6 26
375 7 12
221 15 21
373 9 6
88 6 9
396 13 2
333 1 5
256 5 12
372 2 26
94 6 22
290 12 20
7 5 25
401 6 19
426 14 27
244 14 2
269 13 6
193 12 6
3 16 18
127 4 20
393 7 8
164 15 7
190 3 7
189 11 12
319 3 26
481 10 8
70 7 7
2 5 5
389 2 22
183 6 25
438 9 19
427 14 6
62 8 12
128 11 24
120 7 10
186 2 25
155 12 8
465 0 13
24 4 17
284 9 27
312 5 8
457 0 3
464 13 15
183 10 10
68 13 6
88 10 15
427 7 10
214 9 24
480 4 11
39 16 28
58 6 6
378 13 7
422 16 16
221 10 14
300 8 19
277 16 6
286 3 24
174 15 22
197 3 16
79 2 15
412 3 24
308 1 13
57 1 24
4 0 10
260 1 23
20 12 26
238 4 9
476 5 9
393 16 10
407 15 10
486 0 13
190 13 20
18 13 10
388 9 17
356 6 22
496 12 24
428 15 9
177 0 10
390 0 19
75 3 1
323 12 14
184 6 27
328 16 1
75 1 22
111 16 4
32 8 16
272 3 0
440 13 16
422 3 5
15 15 4
352 2 24
327 3 24
173 11 21
445 0 1
37 5 26
111 0 18
174 13 14
447 6 16
397 5 28
124 15 26
371 12 26
412 1 5
231 3 12
365 0 6
449 1 20
418 6 6
80 0 11
84 10 3
155 16 24
67 10 10
316 3 1
240 16 21
312 14 15
312 16 15
77 14 18
458 9 13
122 11 14
459 5 24
467 9 16
260 1 23
495 8 14
183 9 20
68 1 0
432 9 21
244 14 9
480 3 7
410 6 23
57 2 19
135 8 6
144 1 24
211 4 8
328 16 23
380 10 23
456 8 26
281 11 25
407 7 23
310 16 24
403 3 27
142 5 27
216 4 26
74 16 7
384 14 28
23 14 24
163 10 23
345 5 15
459 3 24
17 15 24
432 8 22
127 6 10
340 8 13
317 7 5
106 11 17
402 10 26
458 13 18
75 2 24
496 4 15
454 11 8
26 15 28
34 6 17
190 15 5
356 0 26
198 16 8
239 7 15
448 5 6
222 4 9
488 11 10
227 15 16
206 16 3
443 6 3
297 11 25
246 16 21
76 8 18
269 3 0
479 4 2
154 16 7
337 1 3
200 8 21
13 2 13
306 4 22
64 11 11
304 8 28
490 6 11
323 10 5
137 4 6
176 10 9
221 9 8
297 0 22
35 10 5
390 10 7
424 11 13
83 11 9
398 5 21
433 16 17
47 7 4
486 6 2
9 4 20
203 4 2
437 1 5
233 4 26
440 10 10
321 12 10
160 9 2
288 9 27
260 7 12
80 13 11
430 14 24
168 14 17
294 15 15
40 12 16
214 4 19
46 10 23
85 8 3
341 9 27
199 16 13
58 5 12
300 8 6
481 12 5
457 13 3
354 10 2
477 1 13
398 12 20
239 4 9
54 15 0
107 14 27
344 10 14
482 9 3
402 5 23
200 14 26
141 8 2
208 14 25
29 9 21
77 1 4
49 11 5
149 8 24
360 10 12
280 6 1
107 6 17
42 12 20
346 13 6
105 15 25
410 16 13
153 10 7
284 16 15
393 1 1
432 2 7
236 1 7
163 10 7
334 13 22
113 8 16
250 8 17
61 12 21
165 2 22
80 13 1
265 11 11
262 13 19
281 3 9
452 6 27
144 14 17
383 13 18
374 11 23
357 13 24
180 0 18
418 9 12
373 2 15
365 3 20
26 4 12
252 11 24
61 10 0
206 1 22
347 7 14
291 10 10
379 4 25
239 2 4
271 12 15
14 16 25
47 1 12
279 14 6
343 3 8
352 5 17
263 9 10
4 15 7
286 10 9
429 0 16
358 9 6
297 14 17
21 5 27
345 6 13
426 9 9
1 3 11
26 6 12
269 13 25
48 1 14
185 1 2
213 2 20
274 8 25
373 5 1
142 12 21
154 9 5
445 2 16
442 12 17
492 13 23
101 8 11
423 16 11
266 10 5
337 1 10
363 11 15
174 10 0
272 16 19
93 7 19
243 13 23
407 13 24
402 1 0
215 2 18
355 2 27
164 4 2
226 2 19
167 14 13
254 12 14
259 13 13
86 8 10
118 1 12
474 12 4
345 14 2
404 0 6
462 7 2
139 13 27
39 9 14
412 1 19
383 14 23
496 3 16
119 8 22
178 6 20
337 11 18
290 1 24
484 0 19
453 0 15
398 4 1
74 0 20
147 5 10
455 12 14
92 12 20
133 15 27
182 5 26
356 9 5
442 15 21
345 3 5
167 0 16
355 15 16
67 2 22
436 13 0
281 8 20
342 0 24
314 10 25
183 0 22
344 15 2
287 1 16
36 14 12
270 2 4
227 7 5
114 14 24
226 10 27
117 0 3
147 0 12
435 6 27
372 13 28
124 4 19
38 0 16
168 13 13
498 1 8
402 15 5
262 1 17
149 16 21
1 10 26
186 6 18
101 10 6
18 16 22
15 16 6
248 13 25
35 15 4
245 16 5
130 12 12
267 10 18
8 1 11
317 5 2
480 8 16
201 12 0
442 6 27
206 7 5
261 10 2
392 3 28
422 10 12
390 13 12
440 5 27
185 11 11
99 2 7
295 10 19
484 10 14
42 11 27
466 6 12
177 12 16
96 13 8
196 15 19
295 2 21
71 16 14
55 0 6
52 14 19
157 6 20
70 6 4
393 11 12
157 15 26
59 8 19
309 8 14
250 1 8
172 10 26
359 6 19
170 5 11
393 0 16
429 2 1
260 0 28
335 16 2
1 14 12
269 13 24
277 3 4
444 2 22
428 10 4
468 1 4
239 0 20
255 3 26
320 4 22
206 16 5
471 13 20
285 0 9
35 6 12
154 3 12
463 7 27
100 12 28
495 16 26
360 11 18
414 13 25
483 8 3
172 8 7
267 10 7
226 3 20
375 0 1
74 5 3
303 5 22
72 5 17
103 16 28
212 6 1
116 13 20
367 3 24
10 2 8
125 0 8
142 5 0
18 2 24
266 14 18
226 8 18
336 1 2
26 15 0
222 5 11
282 5 4
9 3 4
78 1 21
336 5 7
40 13 5
330 5 8
432 3 22
282 12 21
71 10 22
212 2 27
9 14 19
17 2 27
77 7 10
372 1 28
219 9 18
185 16 7
12 3 15
40 13 10
205 2 13
353 14 1
477 12 9
366 14 9
273 11 11
234 2 6
12 7 21
227 3 15
438 16 13
135 15 9
1 3 0
262 6 1
116 0 5
22 7 15
33 1 1
67 12 27
128 4 0
214 7 21
218 11 5
127 9 19
313 2 27
324 4 11
38 2 25
188 0 26
144 3 17
223 14 10
469 10 26
371 6 4
415 16 17
394 2 3
228 0 0
489 2 5
136 4 11
199 15 21
112 13 24
133 16 26
438 10 22
173 12 9
49 10 12
218 6 11
404 16 15
121 1 13
55 8 17
319 16 27
359 8 0
393 15 14
492 5 17
223 1 0
287 11 28
341 13 3
61 10 6
299 8 16
160 7 13
100 1 25
163 14 19
346 2 16
96 5 19
437 3 14
340 11 24
263 10 0
389 12 14
73 4 11
145 9 0
481 13 4
66 5 16
458 6 4
426 5 6
222 6 28
264 11 11
155 5 10
128 2 6
285 13 8
350 1 2
81 1 7
322 3 9
180 12 23
301 5 28
485 8 4
335 8 27
49 1 4
38 13 1
179 2 22
440 15 6
454 6 16
474 12 19
146 13 6
219 1 3
218 14 24
209 2 12
289 10 0
316 6 19
148 14 24
407 2 28
205 5 15
444 5 24
75 8 12
12 2 7
485 0 9
107 15 5
291 12 19
100 16 26
174 16 9
151 10 13
75 16 24
282 1 18
162 8 7
368 12 24
124 7 20
184 10 13
366 16 0
497 9 2
342 14 11
187 4 21
229 10 28
112 13 5
49 14 23
202 2 2
163 8 21
484 3 14
315 7 13
401 9 25
194 5 0
154 0 14
229 6 0
434 9 15
189 8 19
65 4 17
56 3 14
315 11 19
175 13 8
228 13 17
348 4 17
240 1 8
389 7 7
28 13 27
210 5 12
276 4 6
302 14 16
393 10 8
27 1 21
442 6 13
15 3 10
172 0 26
124 11 7
356 15 15
29 12 27
217 3 11
393 3 0
235 3 15
15 15 26
249 14 12
122 14 0
156 0 16
358 8 28
246 2 4
309 3 27
129 1 9
336 15 19
203 0 13
436 3 7
135 3 1
464 4 0
244 3 14
255 11 3
422 0 19
121 0 16
177 7 20
289 14 8
479 12 12
224 8 19
229 14 17
370 9 4
209 8 24
326 5 4
309 0 4
146 4 11
493 14 26
158 6 24
277 1 4
149 2 14
410 14 3
233 8 13
310 8 28
103 14 26
31 12 18
276 4 26
115 9 2
294 10 5
346 16 8
372 1 2
314 12 10
453 15 23
452 1 18
323 4 10
494 3 1
222 4 1
332 3 17
356 12 22
22 8 8
391 9 13
106 5 9
442 11 15
342 12 7
233 13 8
310 15 6
107 7 0
118 5 14
384 7 27
362 6 12
235 14 23
194 0 26
329 15 5
8 9 5
7 4 6
469 14 18
197 0 10
154 9 18
231 9 7
418 8 9
190 13 7
134 4 6
439 7 5
109 2 4
73 3 20
66 1 22
266 0 6
199 8 16
314 12 24
98 11 23
244 2 18
496 13 16
66 1 25
445 8 15
262 10 15
328 13 11
299 12 14
268 6 26
82 0 9
64 3 15
42 7 9
49 16 16
416 14 28
259 10 9
296 4 14
258 4 9
196 16 10
40 10 6
321 9 11
221 1 18
297 3 26
443 6 18
107 15 26
239 2 16
89 11 27
58 10 17
486 1 20
99 15 20
343 2 11
462 14 12
446 6 12
296 11 6
99 9 2
40 8 24
345 13 7
354 7 3
273 5 17
421 0 23
353 7 7
302 13 1
385 8 3
370 7 18
49 10 7
460 5 28
397 8 10
139 1 4
268 8 15
331 4 13
321 15 4
342 11 27
366 9 27
0 11 9
334 16 5
115 3 10
253 3 25
101 9 17
292 10 28
390 16 10
111 14 0
492 11 22
145 12 19
270 12 7
383 0 13
446 1 5
399 14 8
103 11 22
234 15 3
259 1 21
359 11 0
481 11 27
280 12 2
323 15 17
67 7 6
20 9 6
63 12 22
322 4 3
412 4 27
389 11 8
311 7 24
346 6 20
66 1 3
202 16 13
203 14 19
328 4 22
495 9 26
486 1 15
442 15 27
355 8 10
430 2 20
89 13 26
92 1 3
6 9 8
302 3 22
492 7 23
246 16 2
13 3 5
286 10 18
141 7 13
214 6 23
158 0 15
189 10 16
7 5 24
67 13 17
439 6 4
93 12 2
252 9 14
464 10 9
181 16 19
237 15 19
444 5 22
344 6 19
366 14 15
281 0 27
455 5 22
176 0 4
113 9 19
219 6 9
246 7 21
85 5 2
332 15 19
298 8 5
400 1 21
301 10 22
223 1 17
482 5 10
382 2 25
2 16 1
410 12 1
67 16 18
117 2 10
245 14 17
121 9 5
223 13 14
128 14 7
304 7 15
456 15 4
342 3 24
64 0 15
364 10 17
404 10 5
183 14 14
123 13 23
139 2 22
399 7 15
479 2 15
445 15 8
109 5 20
334 0 5
235 15 3
214 4 7
198 11 6
59 11 0
109 12 5
323 8 3
335 8 3
45 13 1
392 4 2
73 14 14
475 7 18
491 14 24
211 14 2
5 2 8
263 15 14
284 12 23
210 14 12
104 10 15
181 14 18
370 2 22
105 16 12
211 3 11
98 2 19
178 14 7
103 10 6
128 13 19
316 1 15
400 5 21
338 3 1
23 14 23
299 0 16
39 12 28
61 7 13
345 9 2
396 4 13
257 10 22
486 5 6
119 4 7
18 3 19
196 11 0
280 11 14
84 4 24
335 3 21
59 4 24
353 10 27
284 13 14
180 13 9
358 3 4
187 5 16
332 1 17
490 0 22
377 8 0
89 2 11
205 12 27
228 16 25
12 4 16
388 4 19
42 13 25
351 1 25
268 0 8
198 14 21
46 5 14
24 15 22
348 9 7
5 3 28
223 14 20
398 6 27
342 9 0
467 13 11
302 2 8
402 4 6
217 10 26
430 9 4
315 1 4
109 10 26
360 0 20
292 7 10
441 10 18
384 7 23
120 6 11
481 8 12
339 3 4
124 0 25
366 11 16
416 1 0
319 0 0
44 1 27
232 14 21
469 4 18
333 1 0
67 9 8
348 11 21
66 2 5
383 10 27
33 10 3
449 15 21
163 4 20
70 0 9
23 6 25
427 4 17
7 12 19
150 9 4
264 10 23
471 0 3
168 4 16
50 13 26
172 10 3
87 12 6
490 1 21
472 3 21
241 11 12
422 7 7
208 12 3
285 3 13
80 16 26
422 0 27
119 5 8
80 16 7
61 14 27
488 10 12
315 7 22
351 12 23
143 4 26
428 13 22
110 0 3
406 2 2
57 9 10
102 0 18
420 9 4
236 3 24
192 9 15
320 6 5
470 15 17
193 6 21
107 8 28
143 4 2
357 8 3
456 11 17
252 8 0
376 4 17
74 14 18
380 4 4
93 0 16
181 2 28
273 2 2
463 10 11
453 14 0
324 0 11
148 6 25
275 0 6
22 12 5
248 16 9
433 15 23
328 13 5
106 12 10
245 6 11
165 14 11
499 5 9
301 16 26
137 16 21
450 16 9
205 14 21
428 4 9
23 9 2
139 6 13
222 3 24
162 3 12
235 16 5
401 8 6
81 13 28
427 5 23
312 2 5
333 14 24
177 7 21
257 13 10
389 1 9
369 14 8
301 5 16
442 14 9
48 0 26
365 0 7
448 5 12
396 9 10
301 5 3
372 6 9
381 15 4
336 13 27
479 14 27
227 13 6
50 11 11
445 12 5
454 3 6
217 5 18
97 11 1
354 15 20
233 8 14
208 1 8
286 2 2
387 8 9
72 2 27
241 12 7
357 1 26
129 7 8
422 5 17
223 12 9
380 9 19
30 1 24
105 7 16
479 14 3
356 10 3
346 0 3
266 7 9
47 4 12
401 8 5
377 7 15
256 8 15
218 12 26
6 14 24
65 0 12
255 0 25
459 9 26
459 14 12
148 10 8
25 2 27
473 3 27
160 16 18
197 14 5
345 10 10
286 6 21
190 13 0
465 6 2
298 12 22
359 3 15
99 7 9
140 13 24
179 2 24
363 13 8
17 10 15
182 12 23
461 3 13
376 14 12
320 15 26
68 10 19
342 7 3
386 16 6
194 12 22
388 12 0
42 5 7
97 8 3
87 15 18
375 3 6
145 5 1
186 8 28
130 7 27
46 0 7
388 13 5
260 3 16
278 0 25
283 7 11
448 8 9
396 8 7
499 8 2
305 0 12
379 1 5
274 3 6
5 5 11
93 14 11
3 5 2
34 0 3
123 7 8
462 5 27
158 15 8
121 12 15
18 3 12
109 12 12
338 5 20
486 7 4
145 14 8
77 16 14
409 16 2
172 4 11
385 7 26
202 16 10
165 8 14
398 12 4
477 4 25
249 4 25
157 15 20
409 11 8
467 12 23
41 2 0
324 11 24
476 16 25
33 1 18
46 16 14
98 10 19
46 7 18
155 3 11
475 10 12
257 4 21
185 0 11
238 2 9
95 3 20
466 16 27
63 0 5
407 10 22
76 8 23
11 4 2
367 15 12
329 4 22
320 1 27
428 12 21
149 5 4
49 8 9
332 3 9
277 13 18
250 14 12
421 2 16
345 4 23
11 14 25
39 0 11
375 3 3
2 7 23
454 7 4
375 7 14
372 16 25
50 15 19
61 0 22
272 0 24
12 6 20
122 9 3
251 9 15
426 16 26
415 15 10
281 10 11
227 6 20
343 5 17
77 11 21
173 3 12
313 7 3
461 15 27
79 14 3
217 3 21
489 3 28
269 3 24
108 0 15
402 7 9
388 15 27
58 3 27
391 16 18
399 14 15
204 15 15
59 6 14
285 14 3
297 11 18
12 3 6
360 11 16
354 2 26
407 15 20
193 2 28
90 8 0
423 15 26
222 11 2
239 7 13
31 12 19
210 13 17
198 6 5
353 16 11
387 15 12
251 4 18
209 15 26
392 15 13
116 16 9
488 3 5
98 12 15
302 1 17
314 13 21
474 12 13
402 12 1
350 16 11
305 11 28
324 13 6
453 8 10
57 14 28
167 15 23
110 6 23
160 5 11
368 5 22
110 10 8
73 3 21
434 3 20
242 3 24
177 11 6
115 11 19
316 9 17
422 9 23
441 15 26
189 4 15
1 2 1
327 1 12
415 3 23
286 9 17
93 16 26
89 12 13
93 15 25
403 7 17
16 6 8
399 4 12
106 8 5
443 4 2
172 9 22
462 10 2
137 14 5
165 10 23
23 10 11
462 3 3
350 10 25
398 0 22
426 14 2
88 1 10
217 4 17
382 4 8
174 7 0
272 5 26
248 15 12
202 8 23
295 3 13
444 16 1
257 9 28
426 9 2
321 6 21
201 16 18
431 6 8
169 1 7
335 9 8
442 15 8
67 8 17
431 4 1
254 0 9
131 16 8
3 0 11
192 16 17
406 16 11
465 14 12
364 0 7
366 11 8
104 2 18
382 3 10
383 6 21
329 1 8
32 14 23
431 11 6
190 15 4
392 1 8
396 7 12
171 1 23
57 14 19
176 14 9
403 2 4
397 3 27
248 9 14
2 1 17
265 5 26
98 6 13
232 7 26
22 10 27
48 15 25
186 7 24
129 14 7
437 14 26
318 15 9
169 7 28
406 7 17
283 1 7
146 9 10
48 4 1
460 1 5
387 2 25
166 0 24
350 15 16
332 15 27
215 6 7
15 12 21
353 5 12
450 14 6
472 16 13
96 2 27
144 2 3
397 8 24
416 3 10
235 8 18
316 4 17
344 5 8
7 8 23
417 14 0
210 15 22
402 7 3
100 6 17
446 4 18
248 3 22
280 0 6
43 3 17
445 7 5
7 5 10
252 5 26
159 11 15
290 6 20
345 13 26
64 6 2
196 5 7
157 13 18
470 14 5
51 15 11
2 0 3
15 0 1
7 2 22
333 8 24
247 13 9
498 1 28
220 7 11
102 6 23
181 13 2
236 13 12
183 8 9
140 15 11
37 4 21
338 13 9
303 14 28
314 3 26
288 15 25
344 16 17
252 0 15
440 7 19
130 10 10
93 7 8
456 4 8
18 8 14
146 11 27
83 1 28
435 13 5
477 4 10
269 10 14
1 13 13
415 8 3
183 16 15
269 5 4
275 5 3
238 3 25
87 9 22
102 0 10
50 13 6
246 1 9
43 4 12
115 9 28
205 3 21
424 15 18
397 0 28
197 2 27
65 9 28
208 2 2
132 8 17
108 15 27
159 4 24
17 13 10
439 8 11
336 2 10
452 15 5
148 5 20
221 5 9
454 12 7
124 12 13
342 2 10
167 5 16
91 7 28
99 4 17
429 14 24
159 8 6
227 1 3
135 1 9
88 9 0
377 13 11
179 12 27
428 2 22
390 4 14
130 8 14
242 8 14
291 5 7
411 13 12
37 1 14
99 13 7
111 7 24
331 8 14
307 16 1
212 11 21
411 9 16
58 3 5
24 12 27
55 6 18
435 0 26
37 9 12
415 6 14
175 7 8
364 16 24
35 3 4
264 2 14
152 6 15
327 16 3
327 11 8
202 14 21
219 5 13
42 16 2
295 3 9
280 1 26
377 9 7
35 4 27
139 10 17
314 9 20
472 5 11
495 5 9
461 16 23
148 0 15
365 2 28
468 8 21
146 3 6
80 1 15
384 9 22
218 0 0
85 1 22
353 15 16
443 8 3
183 7 19
395 6 12
195 14 26
284 3 1
105 15 13
430 12 16
61 12 3
451 1 12
38 10 0
492 8 27
321 3 25
223 9 9
41 8 0
290 2 19
288 7 2
354 10 12
0 11 13
303 13 9
84 9 23
97 8 12
169 13 22
337 11 4
481 8 27
122 1 22
101 8 7
197 5 20
480 5 24
44 7 6
304 2 15
3 16 18
1 14 4
410 3 17
62 13 4
318 6 17
195 1 15
139 1 20
499 4 8
387 16 24
18 13 16
497 2 6
64 11 28
380 7 24
317 12 24
349 5 11
279 5 20
202 3 20
307 1 14
25 12 15
178 16 9
9 12 8
466 15 11
289 7 16
19 15 1
247 9 2
452 14 22
7 8 19
455 0 23
101 12 27
327 0 3
243 7 24
491 3 15
411 10 1
456 10 11
126 13 24
168 5 6
217 3 26
86 0 5
479 5 14
52 2 23
210 9 14
258 12 8
304 7 27
210 5 18
17 6 13
277 8 8
339 14 1
5 1 24
353 4 23
157 6 11
63 4 11
151 1 26
208 8 7
29 5 1
106 4 27
100 6 7
344 14 15
141 15 6
163 9 3
449 5 18
41 14 15
229 6 0
164 16 3
204 9 14
107 9 28
119 5 18
17 4 12
320 3 6
328 16 8
81 14 22
430 10 24
121 5 2
151 11 10
66 7 23
394 13 27
260 8 10
496 15 24
78 4 11
67 6 9
70 5 7
262 2 4
72 11 20
400 3 25
228 4 26
167 7 26
377 0 11
487 2 21
318 6 27
225 2 18
291 5 22
242 6 28
480 10 23
274 14 12
82 7 19
124 15 4
469 11 1
80 4 9
306 3 26
269 16 24
66 2 20
206 12 21
430 3 28
495 11 8
413 16 21
406 15 12
394 10 27
298 2 1
475 15 12
486 5 14
389 15 20
43 11 24
427 11 23
143 9 20
199 11 2
225 16 19
444 0 9
478 1 28
157 11 26
256 13 11
433 10 10
436 8 25
310 3 28
404 3 13
421 10 7
125 11 5
72 3 17
73 5 18
415 15 22
17 5 17
248 13 28
324 0 13
178 16 17
224 15 6
421 2 17
66 0 16
488 12 1
117 3 2
357 9 20
55 7 11
89 0 26
220 10 14
163 2 7
408 13 27
129 15 11
405 5 3
101 1 26
482 11 8
61 0 13
49 2 7
53 1 0
118 16 10
55 6 7
465 7 26
270 7 22
315 4 4
121 0 20
492 14 26
176 9 24
93 11 26
271 11 12
301 2 3
89 10 8
383 0 17
156 13 4
78 0 23
385 0 7
413 1 15
258 16 23
369 3 25
233 2 7
211 13 16
316 3 19
7 7 12
146 7 15
434 1 15
331 11 0
151 0 26
254 13 6
379 0 8
68 5 1
111 9 13
287 12 4
161 2 10
147 5 27
246 15 21
407 9 4
151 16 3
407 4 20
340 11 4
157 4 24
399 12 1
368 6 23
7 2 1
386 5 0
403 3 10
228 16 28
283 16 12
189 11 19
191 15 3
484 6 11
196 12 18
465 15 28
320 7 13
346 5 13
223 3 10
372 5 13
29 3 6
291 10 24
182 5 7
48 13 22
375 3 28
178 2 1
215 7 11
121 5 19
355 10 4
21 13 11
159 5 17
121 11 10
95 13 19
82 7 18
206 2 1
67 0 15
339 10 19
139 9 23
408 10 5
112 13 28
102 6 25
347 3 27
176 10 5
240 5 10
437 10 13
282 3 22
74 3 15
161 1 14
444 9 14
345 5 24
314 0 26
163 2 12
231 3 5
366 8 28
492 12 5
288 5 1
192 2 17
335 2 22
232 2 24
358 16 26
55 10 20
343 8 2
30 9 28
476 7 25
337 4 19
425 7 22
199 16 4
251 5 7
395 13 1
118 10 11
472 14 5
154 1 22
453 14 0
192 7 8
412 4 3
482 7 26
72 15 23
117 3 15
426 9 27
91 8 18
151 7 10
455 10 5
299 12 5
131 2 8
214 6 9
17 16 21
272 14 13
191 11 4
307 2 10
205 16 26
353 4 17
338 3 2
498 2 2
130 13 3
128 0 19
199 7 9
76 15 8
192 16 2
495 9 17
339 11 23
178 15 4
441 1 17
361 3 12
311 3 20
188 10 19
170 13 18
467 3 8
403 2 23
399 8 17
306 13 21
121 0 14
190 9 10
21 9 4
296 10 20
265 12 24
178 8 10
282 8 3
305 14 11
407 2 17
390 4 1
456 4 6
183 14 11
89 6 15
439 0 14
302 16 14
249 7 4
169 6 18
184 9 17
19 9 1
115 8 14
342 16 2
251 5 15
437 3 14
345 7 15
434 12 3
298 8 19
297 3 16
414 13 24
139 0 23
24 12 13
103 15 10
20 11 3
471 5 2
58 8 25
137 6 13
463 5 11
369 4 1
492 2 11
373 7 19
394 14 10
479 0 25
432 12 7
133 16 3
391 16 16
273 10 13
81 11 7
470 12 10
421 13 11
314 15 7
486 9 20
380 15 26
403 4 20
58 1 21
197 8 3
49 16 9
169 2 11
245 12 4
244 6 10
26 10 8
282 2 2
44 9 20
411 16 9
254 7 21
277 4 26
235 12 27
459 0 18
94 7 3
29 11 5
341 4 11
54 0 15
57 11 24
49 13 4
262 15 11
277 12 0
88 8 26
175 1 0
56 16 7
222 14 15
388 16 3
216 10 20
170 6 1
325 13 28
380 13 7
243 3 6
32 6 6
176 6 21
28 0 14
355 13 13
41 4 5
191 5 5
381 10 11
361 12 28
120 14 5
163 16 21
302 2 18
451 5 1
116 16 13
318 8 6
492 5 12
42 3 22
479 5 4
131 16 14
39 13 28
134 6 9
230 1 27
299 3 11
331 8 7
112 15 22
411 14 22
357 10 11
322 15 12
59 6 14
287 13 24
86 2 23
249 2 24
296 0 12
223 0 21
475 16 0
18 6 14
442 15 3
268 7 21
96 2 6
125 7 6
464 16 11
124 0 9
424 4 0
82 1 27
265 4 26
265 0 12
228 0 14
439 14 3
28 6 17
152 13 27
281 11 10
153 12 5
120 8 14
48 15 4
288 1 28
128 5 21
0 12 2
130 14 26
22 9 25
424 12 2
222 14 19
163 14 22
318 5 27
225 15 21
200 6 14
159 0 28
172 1 2
296 8 13
76 1 21
65 3 0
329 9 6
279 15 3
129 4 14
134 8 8
372 14 12
311 0 22
294 16 15
276 8 21
444 4 12
53 11 7
490 4 3
299 10 1
350 12 20
370 15 4
73 16 12
79 9 9
446 10 6
5 13 26
368 13 17
328 12 17
293 8 27
228 6 1
333 7 24
240 9 4
232 8 6
54 4 15
72 6 12
441 15 5
131 8 12
274 1 3
2 14 24
266 9 28
175 10 20
122 7 7
123 7 25
49 15 6
228 0 4
89 9 12
465 13 14
188 8 19
385 7 7
457 13 7
404 13 12
429 10 3
473 10 16
291 15 7
167 8 25
380 5 18
389 1 6
244 6 3
470 15 7
436 5 20
282 10 17
148 11 9
369 1 3
406 6 17
206 10 19
489 6 2
3 3 3
237 0 2
8 0 2
493 3 27
66 13 2
402 6 12
333 6 24
189 0 19
437 8 9
86 0 9
249 7 11
399 3 6
57 12 28
487 6 20
135 11 12
284 1 0
228 11 17
124 2 14
74 11 10
150 11 12
173 1 21
204 4 27
149 13 20
385 1 17
286 14 9
210 16 5
144 11 19
486 3 4
159 3 5
493 5 1
280 2 19
290 6 20
62 9 4
289 7 26
246 0 13
131 3 27
216 9 1
198 11 24
415 1 15
275 4 10
291 13 3
286 15 23
234 4 6
107 3 21
199 1 20
103 3 19
443 7 15
173 10 22
392 5 11
32 5 24
367 3 0
316 9 8
465 9 28
499 8 25
170 8 5
227 9 15
23 16 11
222 14 0
70 12 1
422 6 25
383 11 10
279 13 18
158 5 17
227 10 3
293 1 3
406 13 13
79 2 14
497 14 25
3 12 14
75 2 15
449 3 10
433 4 4
129 15 20
7 12 23
18 15 22
459 11 18
373 14 0
413 4 17
218 1 13
273 7 5
305 15 15
375 0 14
355 5 27
288 3 4
19 12 17
408 2 26
312 13 26
324 16 28
115 11 12
368 11 3
290 1 14
21 9 27
75 16 15
488 10 22
209 15 6
76 9 11
218 2 8
469 11 0
29 10 14
31 2 0
78 0 8
148 11 15
376 4 18
472 12 23
125 11 27
428 16 18
477 5 1
89 8 20
413 9 23
236 7 21
38 6 6
239 13 7
351 7 14
442 12 7
329 0 28
201 8 26
412 10 20
270 3 5
347 9 20
493 0 24
222 10 19
362 3 15
76 12 23
231 13 1
117 1 2
289 2 5
466 7 11
121 9 28
335 12 24
429 0 11
407 12 9
310 8 10
194 0 7
230 16 19
51 14 9
459 16 27
175 3 1
50 3 13
25 13 1
9 9 25
2 1 17
340 16 20
141 15 1
235 14 12
392 12 17
97 12 11
369 6 10
318 13 2
323 0 15
120 9 19
463 13 6
302 2 28
232 14 20
238 5 6
235 12 19
383 16 27
246 8 1
296 1 22
127 15 6
156 4 22
119 14 21
307 14 24
312 9 5
39 10 14
205 6 13
326 11 14
242 14 6
221 15 3
406 14 13
192 4 17
118 15 19
117 5 8
176 15 11
436 10 9
433 14 10
430 0 14
266 2 28
269 15 21
346 1 24
40 11 25
32 15 9
186 4 1
260 10 22
83 4 3
256 11 13
353 4 6
117 14 21
189 15 15
48 2 1
68 12 23
50 1 27
480 4 28
21 0 23
195 9 7
134 2 23
59 7 21
67 15 26
139 7 12
133 3 18
340 16 21
168 4 2
496 2 8
246 12 23
192 4 4
325 1 25
182 10 20
480 16 25
6 12 19
288 0 18
460 16 18
418 14 17
398 1 3
422 3 12
392 1 25
254 6 10
423 13 25
136 9 5
382 7 15
109 15 18
246 3 24
462 9 7
109 12 20
263 5 4
400 3 9
469 12 20
255 8 27
52 7 9
343 7 27
339 2 21
67 16 15
321 0 22
158 3 2
41 6 1
421 2 24
442 13 9
397 11 23
186 2 6
179 9 6
15 12 11
148 6 15
248 7 10
244 4 27
33 6 8
57 4 8
475 16 7
360 14 9
374 7 19
166 14 20
437 4 12
321 6 6
137 7 27
32 3 2
277 13 12
371 2 8
454 11 13
234 16 23
367 2 25
219 9 23
32 2 12
496 3 19
179 15 4
200 11 19
318 9 10
273 4 10
328 5 23
249 12 15
277 14 0
277 9 23
351 0 7
475 10 14
433 3 28
51 11 1
414 2 21
261 12 0
427 1 0
313 14 13
277 0 8
404 6 12
463 5 4
415 1 1
453 16 4
485 15 9
166 2 4
408 2 16
137 6 25
248 10 16
475 14 24
304 6 23
97 2 17
390 7 5
332 0 3
259 13 3
349 15 12
329 2 15
49 1 27
43 4 19
62 10 6
81 7 20
360 1 17
259 15 22
262 6 9
64 4 11
296 2 25
417 2 17
30 12 9
225 4 22
128 7 8
96 12 12
14 7 4
34 6 28
279 13 25
31 12 5
203 14 14
12 16 28
201 4 21
121 3 23
33 6 15
80 3 22
344 0 10
442 5 6
14 7 1
140 6 28
496 11 28
1 8 1
210 14 0
435 14 15
353 4 22
82 16 28
499 14 11
339 2 19
342 3 22
155 5 14
214 4 11
384 9 4
326 15 16
458 9 28
317 8 9
419 3 16
449 9 4
470 3 16
474 4 14
457 9 15
493 11 21
132 10 6
433 9 2
359 14 5
285 4 4
296 3 11
311 6 25
154 5 14
242 3 10
486 15 6
455 9 3
413 10 17
359 8 27
227 0 27
226 10 7
197 2 22
483 11 21
262 13 4
125 1 23
265 15 22
409 3 6
158 8 27
351 3 28
317 15 4
413 8 20
390 12 9
473 9 26
196 13 10
494 13 1
129 13 25
47 7 1
74 8 10
191 15 6
95 2 9
117 16 23
301 13 4
1 2 21
443 14 1
166 6 28
201 15 15
15 16 9
284 2 11
229 10 18
222 12 0
45 15 12
74 7 27
464 14 21
489 6 8
108 2 14
213 11 28
151 9 9
421 16 12
289 7 15
345 12 5
171 5 6
194 5 2
109 9 4
440 9 5
171 13 28
480 14 15
158 0 24
403 7 1
225 1 17
481 14 15
373 11 15
54 3 10
453 2 23
438 9 26
471 4 25
457 12 21
148 1 13
398 7 28
172 8 28
191 4 21
123 12 6
151 5 16
467 2 10
311 15 21
89 7 1
381 15 21
308 10 10
324 0 2
13 11 28
190 14 27
248 12 7
176 5 11
23 3 22
288 1 27
130 6 28
341 0 14
62 13 10
265 15 2
122 5 27
252 6 12
100 2 1
470 2 27
451 3 18
401 6 7
367 8 20
187 14 19
354 5 23
111 4 12
155 9 17
367 10 4
386 11 7
69 8 18
401 10 6
354 7 9
325 5 1
343 3 21
372 2 25
136 0 17
81 1 10
241 0 28
377 4 8
274 1 23
91 3 26
491 4 28
107 0 26
319 1 27
356 15 12
336 1 15
272 0 17
114 5 13
357 8 4
271 3 26
367 13 11
29 14 4
254 14 5
285 13 19
12 11 9
285 12 15
352 7 22
66 9 10
438 8 5
174 15 19
494 16 7
289 2 25
304 13 0
56 0 19
111 8 8
203 4 28
181 13 28
215 15 2
334 15 6
366 5 4
132 6 0
198 9 10
163 7 28
17 7 11
475 7 13
452 9 16
331 11 0
173 15 2
406 9 3
164 16 18
124 4 20
187 13 3
321 1 18
339 7 16
23 4 13
114 2 7
267 10 26
292 6 20
203 2 0
361 12 22
100 16 16
332 15 12
499 10 9
229 11 17
48 9 17
51 11 18
105 10 9
61 6 2
489 5 4
273 13 7
392 6 12
362 1 26
397 4 7
305 7 1
346 7 25
360 9 8
30 9 25
297 2 16
266 15 12
109 11 6
43 6 7
117 10 3
472 4 10
358 6 9
360 0 28
278 4 8
414 0 16
53 12 16
236 8 27
86 3 10
185 6 17
422 10 5
96 12 20
299 16 15
66 5 28
275 8 11
327 16 28
204 10 20
376 7 25
216 3 11
368 7 10
159 12 24
493 0 1
147 2 12
14 9 14
257 14 9
64 9 26
12 2 12
26 0 3
409 3 28
31 8 14
409 12 13
241 3 0
251 9 26
239 16 8
279 7 9
484 15 15
420 13 6
498 0 5
26 7 27
253 12 8
366 13 21
114 6 20
55 15 4
230 14 4
478 10 12
24 8 27
320 4 3
311 14 24
451 14 26
281 11 1
104 12 24
495 1 17
420 13 12
290 8 0
399 16 25
55 16 13
41 5 18
278 8 14
346 9 22
72 2 22
290 3 2
165 14 9
347 5 19
32 6 9
409 15 15
54 13 2
73 15 19
292 12 18
32 3 1
257 3 24
213 10 21
376 0 3
151 0 28
347 14 8
450 3 12
160 2 0
218 0 22
367 3 5
267 8 5
146 13 22
297 0 23
468 16 12
291 3 28
145 3 26
297 2 6
346 8 23
53 8 5
315 12 8
460 9 13
488 6 25
117 16 9
124 8 28
384 6 13
367 3 6
203 15 3
426 4 28
9 8 0
332 0 24
499 0 15
487 11 19
79 15 6
91 10 17
53 5 3
390 6 28
281 15 10
279 15 13
180 12 26
395 13 28
312 12 13
253 3 23
25 1 9
455 2 6
318 8 11
373 13 4
477 4 3
196 10 13
226 10 11
144 0 21
300 4 7
320 2 10
138 5 9
235 12 7
466 6 9
492 6 14
85 2 27
2 4 19
264 1 14
409 13 13
36 12 26
279 14 2
449 4 20
373 15 0
220 16 26
310 10 10
243 2 5
307 0 19
416 11 4
343 15 2
200 12 17
296 7 10
0 13 22
4 12 5
12 11 17
338 1 10
162 8 7
221 9 19
493 14 0
127 5 13
339 4 20
77 2 20
93 6 25
318 13 12
22 14 19
95 8 24
413 12 2
338 9 18
228 9 16
99 7 9
328 5 25
446 11 7
46 13 10
390 6 23
445 8 18
355 10 6
308 10 3
142 9 19
237 3 25
365 8 11
37 11 16
14 14 4
347 4 19
74 7 27
466 10 4
105 15 25
151 3 15
372 7 8
43 11 13
25 6 26
305 4 8
21 2 6
462 16 23
452 1 11
139 10 20
286 10 18
376 4 2
189 16 22
363 9 3
173 2 7
95 0 19
352 14 4
199 5 20
474 7 15
167 11 25
448 8 12
144 16 9
440 16 25
394 16 15
227 14 23
247 6 2
29 9 18
444 10 26
304 14 13
344 1 11
293 8 5
339 2 8
208 4 16
377 10 0
109 14 26
249 9 18
91 10 10
11 1 28
59 2 4
118 8 0
493 1 4
403 3 9
428 12 9
287 2 1
171 13 4
104 7 0
364 1 24
415 7 27
116 1 5
187 14 23
411 7 10
95 15 16
27 1 25
336 2 17
237 3 18
222 2 19
118 5 20
244 14 15
491 3 5
257 5 14
263 11 24
294 14 7
368 15 2
194 13 7
124 2 7
130 16 10
78 13 26
138 7 25
8 2 25
342 4 28
26 4 19
25 12 13
336 13 2
111 0 3
174 10 8
160 2 4
239 2 28
306 12 15
125 8 13
358 3 7
414 9 22
114 12 11
148 11 18
98 13 3
489 16 14
443 14 21
455 8 8
233 1 22
284 12 1
455 10 26
168 13 7
418 14 17
482 3 2
183 1 22
66 8 7
53 6 7
334 5 1
359 5 6
285 6 24
137 1 24
161 0 21
161 1 18
308 8 10
95 6 2
30 11 26
244 9 14
179 15 15
222 3 27
126 6 8
22 8 17
23 5 19
45 2 20
430 4 11
305 14 3
56 0 1
14 5 17
484 11 0
20 5 22
406 2 19
62 14 26
107 16 5
367 2 19
206 15 8
189 6 17
91 16 26
382 2 21
5 7 23
380 2 24
478 8 11
19 15 19
213 10 2
244 2 17
217 0 21
464 1 1
391 12 24
437 3 15
41 10 3
41 13 18
326 10 14
19 5 1
108 8 0
188 13 7
479 13 21
37 6 21
14 12 21
98 3 0
479 16 3
251 3 19
451 12 22
255 0 10
3 7 17
40 5 24
385 2 6
221 7 8
475 5 2
151 6 22
258 13 0
142 2 27
154 12 15
86 14 24
364 12 21
76 16 5
322 3 23
27 15 25
138 15 2
382 2 27
365 2 22
354 13 5
247 8 25
0 5 19
226 15 25
419 14 0
496 10 2
123 7 18
262 13 11
344 13 1
178 5 22
334 14 12
240 15 7
286 15 15
122 10 11
468 13 21
262 9 5
193 6 4
326 9 26
20 2 2
73 3 22
207 8 15
190 13 27
98 0 13
336 10 19
28 11 8
461 15 27
1 15 17
45 11 3
124 7 24
172 4 14
175 10 19
421 11 27
346 13 8
440 6 2
376 4 18
213 4 21
109 4 13
144 8 9
27 0 4
494 10 0
419 7 15
101 14 17
364 14 6
139 16 18
169 7 24
13 10 2
112 13 25
297 13 11
242 16 3
57 8 21
23 9 7
324 14 24
79 10 6
135 10 11
268 10 11
222 15 6
8 4 14
404 8 27
273 0 3
297 2 23
244 7 4
356 9 3
239 0 5
350 5 6
105 13 22
327 6 9
183 8 10
351 8 13
96 5 2
442 1 15
485 0 5
150 2 15
161 16 13
123 15 15
48 8 15
449 0 8
19 11 22
431 15 13
274 9 8
328 8 12
106 12 25
115 8 25
247 6 26
280 16 2
310 13 6
378 3 23
53 9 0
338 1 16
271 11 2
491 10 25
381 16 12
464 12 16
167 5 0
17 3 13
101 4 4
46 4 14
22 4 11
29 15 24
189 4 21
428 9 20
208 14 13
321 15 14
465 12 10
54 12 13
416 7 8
250 10 1
251 0 27
425 12 1
24 2 3
473 10 15
174 13 6
173 0 13
395 8 8
454 4 7
466 1 28
217 7 18
263 3 28
244 16 20
237 4 23
59 16 24
11 9 26
184 0 4
320 3 15
414 3 27
242 2 5
271 8 18
423 9 24
5 8 24
182 12 16
81 6 18
426 9 10
461 12 17
94 16 7
249 11 26
316 4 13
384 5 26
472 6 21
151 14 27
348 14 12
293 7 17
445 1 0
25 11 25
162 12 14
253 10 23
417 16 27
439 8 11
213 8 11
140 6 25
121 6 25
96 11 15
486 2 8
113 16 17
365 13 3
110 0 9
94 7 24
487 1 8
388 14 25
23 11 2
496 8 4
322 2 8
364 10 18
430 8 11
178 13 24
191 11 12
222 0 5
236 11 13
271 11 10
167 4 14
66 13 24
160 0 2
222 6 10
260 6 13
111 5 7
260 16 11
224 14 16
92 11 25
175 13 7
353 3 17
279 4 26
279 4 19
388 15 10
338 7 20
348 3 5
80 16 2
416 15 1
61 13 6
212 6 4
1 11 21
96 13 24
466 11 22
248 15 18
197 5 0
44 4 16
441 15 15
490 0 18
87 0 25
381 9 27
328 7 22
446 10 1
284 9 15
377 1 25
274 5 18
262 3 12
6 8 27
423 9 3
142 5 17
477 15 18
312 9 2
366 9 10
389 7 26
210 6 4
91 12 1
388 13 25
412 14 15
257 6 9
389 7 2
191 13 11
489 14 21
195 15 19
253 1 8
426 6 10
85 8 3
236 1 15
429 2 8
392 16 4
389 9 4
165 16 2
345 16 0
180 3 6
112 0 12
339 12 21
466 10 23
32 1 10
156 6 26
365 14 24
191 8 7
350 2 9
424 4 8
171 0 11
140 11 27
385 14 4
157 6 28
315 11 21
261 14 14
266 16 26
298 13 9
25 9 20
324 6 27
165 13 2
15 10 4
68 14 27
14 2 22
8 7 5
149 0 28
154 8 18
419 12 11
276 2 27
466 8 0
262 13 13
387 14 5
50 16 21
214 13 26
330 8 20
296 5 21
101 4 3
130 10 14
439 0 3
448 13 9
435 1 6
146 6 23
190 11 8
403 6 3
320 2 10
180 7 7
155 4 0
197 13 21
486 12 27
17 11 9
353 3 13
18 2 18
256 12 8
420 16 22
366 2 28
31 6 25
44 10 19
222 16 17
325 1 11
171 3 22
255 15 8
278 15 18
98 5 25
361 4 0
238 14 6
299 8 21
185 2 12
210 4 8
101 4 6
188 2 1
395 8 3
390 12 0
287 1 17
141 2 27
49 11 9
29 1 8
455 15 12
394 1 22
53 0 11
37 16 26
333 10 13
127 1 23
318 13 25
456 13 18
327 15 13
152 10 7
132 16 4
29 4 1
305 4 17
153 16 22
206 16 0
289 14 25
87 8 6
342 0 7
250 16 10
143 1 15
317 5 14
69 5 9
49 13 13
492 5 0
494 7 0
482 8 17
155 1 6
104 3 28
89 10 21
27 14 27
397 1 7
50 4 5
269 10 16
151 15 11
88 7 2
144 4 10
412 3 28
227 4 24
386 11 9
476 13 3
190 16 9
322 10 10
416 5 5
210 15 18
133 7 8
80 9 21
388 12 4
479 12 7
224 1 18
93 6 21
50 10 23
333 7 2
175 14 7
268 13 2
453 5 16
281 1 2
187 7 1
330 0 7
148 12 2
155 1 19
92 13 15
213 12 14
16 6 10
96 5 20
437 9 21
217 13 17
98 7 4
108 11 25
150 8 0
455 10 17
401 13 11
266 1 19
98 2 24
205 0 2
275 7 7
251 3 21
439 14 17
434 1 3
95 3 8
49 2 16
312 12 3
377 9 20
90 14 2
260 13 9
25 1 9
178 14 9
309 8 16
66 8 5
31 6 6
216 11 9
312 7 23
84 13 11
119 8 8
397 14 20
320 4 17
402 11 20
329 1 20
269 9 17
177 11 17
246 7 15
291 8 4
486 1 3
93 2 21
366 6 17
250 0 9
238 3 19
276 11 25
306 14 9
206 16 26
430 14 1
180 9 12
409 4 14
195 8 1
456 5 13
218 13 24
479 12 6
396 2 14
118 14 10
412 15 15
188 2 18
326 15 20
283 1 12
90 3 26
409 12 8
61 5 27
66 3 6
357 15 18
302 15 6
9 8 28
403 5 10
179 3 10
101 2 21
402 8 27
36 15 12
73 7 5
168 8 21
294 12 6
27 7 13
491 5 28
8 3 6
486 16 1
75 2 3
134 5 6
68 5 25
411 6 17
6 8 1
42 1 19
271 3 3
141 16 17
450 8 12
439 16 17
340 1 8
313 1 24
344 6 9
435 4 6
123 16 9
382 6 23
495 11 1
305 12 19
233 7 10
240 1 24
124 4 12
213 14 6
442 9 5
370 0 26
359 13 15
336 4 22
415 2 14
318 12 10
337 7 2
2 13 26
462 9 1
402 10 13
165 15 8
77 6 1
139 9 15
192 5 18
114 1 5
426 1 1
144 8 18
430 1 13
73 16 21
453 14 1
65 13 17
181 7 9
371 9 26
307 13 0
198 4 8
114 13 24
251 2 19
479 8 17
233 13 6
476 15 9
355 11 5
149 14 23
265 14 28
401 13 20
249 12 8
258 16 15
201 6 24
360 0 22
101 11 11
399 11 9
253 13 7
148 10 1
284 3 3
264 13 23
337 4 11
467 4 24
286 5 8
492 9 9
332 0 21
257 14 27
424 11 12
397 12 9
259 8 17
63 14 2
4 16 10
175 2 26
80 4 21
360 1 12
186 1 3
323 4 27
441 8 2
368 2 7
432 2 18
113 2 21
293 6 13
23 9 27
39 5 18
101 15 22
474 12 10
400 1 22
412 3 10
279 8 10
442 12 2
486 0 6
306 15 13
82 2 4
477 11 15
360 0 20
438 7 13
121 16 23
297 8 22
433 3 25
480 9 17
96 6 28
169 11 26
40 12 9
44 15 2
14 10 1
195 5 6
296 11 14
445 4 20
416 6 26
100 1 7
264 15 5
102 3 14
488 2 12
476 11 11
84 10 5
100 3 11
6 16 25
31 5 6
365 13 27
32 13 5
245 16 14
66 13 20
251 0 26
393 11 21
51 4 9
475 2 1
191 8 11
403 16 16
450 5 18
226 15 8
91 15 5
257 15 9
261 9 21
394 7 19
134 1 13
457 0 18
307 12 22
441 9 26
163 10 14
458 16 10
470 11 9
52 1 3
204 3 14
31 10 6
417 15 6
488 11 22
250 1 3
343 13 9
0 2 10
21 14 2
127 8 3
382 12 10
411 14 18
139 4 0
347 1 17
497 4 23
322 3 4
351 15 2
473 7 26
425 6 4
376 2 24
32 10 9
184 5 22
312 7 18
483 14 13
384 8 19
315 1 8
376 15 22
48 0 27
197 14 28
278 11 12
448 9 10
328 2 16
241 1 4
427 1 6
296 5 26
299 1 10
234 9 28
10 10 11
217 9 5
492 1 27
446 5 8
4 16 11
51 1 12
397 16 28
151 3 22
248 12 6
360 1 26
183 9 5
224 6 27
416 8 27
165 8 11
51 12 9
358 1 3
486 10 14
238 2 12
238 10 4
442 15 8
498 9 21
92 8 13
234 2 22
315 15 9
23 6 21
425 5 14
467 4 23
213 12 25
364 8 8
389 5 12
292 15 0
341 11 20
172 14 19
212 11 19
271 6 10
158 7 20
256 8 5
290 7 7
332 3 8
68 5 17
499 16 8
10 11 24
50 0 17
317 15 27
426 6 1
196 1 8
388 11 27
69 2 8
89 7 9
168 8 20
383 0 27
219 7 11
44 12 3
67 9 26
373 12 25
127 2 20
355 13 12
188 6 27
497 11 20
116 8 27
144 5 9
215 14 9
312 1 4
165 12 0
366 11 18
355 6 12
13 6 18
362 7 24
93 12 3
14 1 25
352 9 15
335 4 26
214 9 23
267 4 21
475 14 6
452 12 14
103 13 13
6 3 13
56 6 11
261 13 23
407 9 6
275 7 8
159 1 2
222 2 13
258 5 26
421 6 13
480 10 7
438 12 21
298 14 28
325 11 12
161 7 20
199 1 1
88 6 21
95 4 24
31 16 19
288 11 7
40 4 0
213 10 0
275 4 25
112 15 19
168 15 2
304 0 14
99 1 6
370 5 27
80 16 8
239 1 8
143 7 12
54 5 2
242 3 7
498 0 7
481 11 8
252 6 25
176 15 2
271 1 0
188 12 0
306 13 19
390 6 26
441 1 21
78 10 7
32 10 22
447 3 14
215 2 1
333 0 22
313 2 0
217 8 20
261 15 25
381 9 11
19 11 1
463 15 13
393 7 1
496 1 7
317 1 23
78 9 7
403 11 17
227 16 3
72 10 22
352 7 21
322 4 16
369 10 10
151 0 8
335 3 5
487 13 20
349 2 4
91 9 4
448 11 27
405 1 19
478 10 9
181 8 16
137 9 6
79 2 15
197 10 20
168 9 2
470 16 12
23 10 11
22 0 17
409 4 18
243 7 3
364 7 4
49 6 0
393 5 14
226 2 23
39 8 27
499 10 6
235 11 14
369 12 2
218 6 21
394 6 14
312 15 9
356 14 22
204 12 5
103 7 21
370 5 22
68 4 24
202 15 17
102 12 8
50 2 15
100 4 21
468 9 27
417 4 18
404 2 12
140 15 3
450 16 22
376 12 22
84 0 22
101 5 25
206 12 13
369 8 13
41 1 25
75 16 20
463 10 28
484 6 3
172 4 25
238 11 20
336 13 7
489 10 6
477 16 13
28 0 8
322 15 24
268 11 28
441 16 9
488 12 11
358 7 2
428 6 26
439 8 7
322 14 16
290 16 10
440 2 1
130 5 8
326 3 15
288 13 17
277 16 24
389 13 1
485 14 5
331 7 20
161 16 28
492 5 19
148 13 12
7 0 22
148 14 8
366 6 21
318 12 26
37 6 12
388 6 4
344 8 24
229 7 28
6 10 9
54 10 28
4 10 1
490 6 23
451 12 27
23 2 15
284 1 8
215 6 6
49 1 21
59 4 26
192 2 15
175 6 13
306 11 4
323 8 16
58 6 28
142 5 9
234 11 5
212 16 27
396 5 24
206 6 8
166 0 20
105 8 9
81 6 16
486 14 4
461 0 6
264 13 19
139 13 10
271 4 0
474 10 7
226 9 14
124 6 13
250 9 11
312 11 16
166 14 7
130 14 6
136 2 25
4 0 6
344 4 16
145 6 19
74 14 9
331 5 2
343 3 10
60 10 15
399 2 10
224 15 24
466 11 25
285 0 15
383 8 4
211 6 9
260 3 0
42 15 21
279 15 16
62 0 11
271 10 3
18 0 27
64 10 18
391 0 7
258 3 24
219 16 26
429 4 28
79 10 26
215 13 11
454 6 28
172 6 20
56 3 7
178 8 0
21 10 13
289 5 0
45 8 6
420 10 25
303 14 19
172 13 10
46 13 14
262 8 15
77 6 3
462 7 26
430 10 28
344 16 28
493 2 4
206 1 1
166 8 17
342 9 9
291 7 9
127 4 10
291 3 15
229 9 2
445 14 8
399 14 1
408 5 20
302 10 18
67 13 17
483 3 16
70 11 17
335 6 28
1 5 2
187 8 23
77 12 19
327 11 10
192 0 25
220 2 28
303 10 15
450 13 18
14 2 9
187 10 11
325 14 21
429 1 11
380 15 12
25 9 15
225 16 25
187 6 19
88 0 13
87 5 3
83 16 13
260 11 8
461 1 19
118 12 10
286 1 5
55 13 10
482 1 20
77 0 27
413 0 24
200 9 16
243 14 22
318 9 9
81 3 4
321 7 9
161 5 22
305 8 13
256 1 1
232 0 12
13 0 2
146 7 24
170 6 0
141 7 11
10 12 15
366 7 2
88 13 4
90 15 15
205 13 16
449 11 9
322 2 13
486 6 20
202 0 9
322 14 11
487 3 10
200 16 13
222 13 15
65 1 13
148 13 15
336 14 13
224 14 8
258 7 16
97 3 12
391 1 21
412 16 24
15 12 15
156 13 4
166 7 8
54 10 9
359 8 14
10 11 16
395 5 19
202 14 10
226 6 23
202 8 22
206 6 4
0 13 27
27 1 18
46 16 13
125 7 2
392 7 19
285 0 8
350 10 12
487 1 19
195 15 27
29 8 1
440 15 21
230 14 14
93 13 4
227 9 23
139 0 28
163 2 8
243 1 26
169 14 15
438 12 19
445 9 0
336 15 8
350 3 6
257 2 25
122 8 21
27 15 11
0 8 24
298 2 9
203 0 16
332 5 15
67 12 15
119 5 1
368 7 6
170 6 3
60 0 19
197 6 22
45 8 28
381 7 1
283 10 1
352 16 3
196 3 2
153 11 26
145 3 4
45 3 25
303 6 6
446 16 11
307 13 26
187 3 3
139 6 4
89 4 6
110 0 1
205 6 6
65 10 21
384 7 19
295 3 7
259 3 8
197 6 9
157 0 26
201 15 9
115 10 12
421 6 21
325 15 27
221 10 22
306 12 7
356 9 10
183 2 12
422 7 11
328 0 23
496 0 18
214 5 2
388 10 2
284 14 19
377 16 10
388 8 1
427 3 23
443 12 4
253 9 17
6 11 20
456 15 13
384 6 24
371 5 20
287 14 22
449 3 22
454 15 5
88 4 28
23 6 19
16 1 6
449 16 3
160 7 20
242 1 5
256 5 24
498 8 26
203 9 28
456 5 17
185 10 20
310 7 4
409 11 20
176 10 1
144 5 15
17 15 17
255 8 7
34 11 5
238 16 18
17 1 23
49 2 23
440 16 17
454 15 7
315 6 23
296 3 22
348 14 2
267 8 12
484 4 2
477 11 1
339 16 26
125 7 27
32 14 4
483 12 14
322 9 27
375 1 13
31 9 20
34 7 10
311 8 25
277 8 8
22 12 22
79 8 6
350 1 1
400 12 17
345 10 16
271 16 21
265 2 28
324 4 7
128 11 19
233 11 16
88 0 24
168 11 20
337 11 1
492 4 16
74 14 3
124 15 16
378 6 2
32 15 27
398 13 3
280 9 0
407 1 4
80 5 18
223 8 24
148 6 9
75 12 3
351 13 16
451 14 9
431 7 3
121 4 3
101 14 17
118 16 25
197 4 17
300 10 27
468 0 14
485 1 12
255 9 4
287 4 17
195 8 12
43 12 3
133 9 11
318 1 2
472 9 0
222 16 18
209 10 0
440 12 17
242 4 21
283 3 11
155 1 27
393 9 2
445 2 15
436 7 28
481 9 23
237 15 11
313 4 9
395 2 15
99 8 2
6 15 15
427 5 6
185 0 20
435 4 1
251 9 6
403 12 22
142 5 14
270 16 20
484 12 8
168 12 2
191 10 13
81 16 5
176 12 13
443 8 1
76 3 1
309 4 2
29 11 6
150 8 17
383 2 8
85 13 2
441 7 9
92 11 7
284 4 20
86 5 17
155 16 28
399 2 1
90 4 12
300 7 15
221 5 15
315 7 10
286 6 24
126 16 1
40 10 9
80 10 1
396 16 0
336 11 26
364 15 13
238 11 28
92 14 9
71 14 16
268 2 20
361 1 8
148 12 11
158 6 27
218 6 21
284 6 8
412 1 9
165 2 5
494 15 0
74 5 2
122 3 14
218 15 5
366 5 24
97 11 0
25 12 15
276 15 21
3 1 23
144 1 4
342 2 22
113 9 6
272 7 8
235 0 11
305 5 11
451 9 12
178 0 26
309 6 9
60 10 8
277 11 4
321 3 0
161 15 8
401 0 9
493 8 4
382 4 27
112 5 17
389 14 3
209 11 22
280 15 0
494 7 6
70 12 8
79 9 27
237 2 22
187 16 22
91 12 2
224 13 12
157 13 12
64 0 20
176 5 20
406 4 16
310 13 18
310 14 18
26 9 27
240 14 6
464 5 23
229 3 13
337 1 21
365 13 2
212 3 1
246 8 28
255 13 18
97 5 26
393 2 24
486 2 18
228 8 20
251 11 11
97 16 23
369 9 18
297 16 1
402 3 11
396 13 7
358 4 10
49 4 1
4 11 5
67 9 10
63 14 18
41 6 27
414 3 17
168 9 2
62 16 0
136 4 11
474 0 10
493 6 12
412 4 14
326 8 11
449 8 2
37 6 7
458 3 27
242 4 4
228 15 8
223 0 2
159 5 16
160 7 7
330 10 5
269 13 14
285 12 25
462 5 2
381 6 10
220 7 0
461 12 5
107 7 7
352 10 22
263 2 15
168 4 14
324 10 18
460 4 5
86 6 0
409 11 8
329 14 2
294 14 7
168 7 15
416 6 12
31 14 4
301 0 10
4 9 3
345 14 23
278 7 5
451 4 17
397 13 3
95 5 20
359 7 23
472 15 25
81 6 21
446 6 6
54 8 11
204 7 19
49 4 9
387 9 19
214 11 10
237 14 1
101 5 4
102 10 4
407 7 8
117 4 2
241 11 2
224 1 28
346 5 23
40 0 22
182 8 12
67 8 28
409 13 15
66 4 22
341 7 5
209 12 11
211 13 22
27 3 23
336 4 17
390 1 22
271 6 28
403 6 27
109 6 0
319 1 26
2 14 19
100 6 5
443 15 5
138 11 23
320 14 12
146 11 24
248 15 8
379 3 20
326 3 23
496 6 13
127 9 25
389 12 16
136 5 10
203 12 25
355 13 14
334 9 11
42 13 7
405 0 9
33 15 22
7 9 19
340 16 13
129 3 7
283 10 3
284 2 5
255 15 12
113 15 1
21 16 20
209 3 23
42 14 28
408 8 12
407 9 23
316 14 4
462 10 15
182 11 2
259 4 1
401 8 22
440 9 21
274 2 28
296 0 3
107 11 12
363 10 0
152 9 19
224 10 22
299 9 18
83 2 5
60 3 24
295 7 12
314 5 23
318 4 12
287 5 20
107 6 19
337 11 23
281 0 1
74 1 17
7 3 5
238 1 1
468 8 17
341 8 9
130 9 6
348 3 10
184 14 28
12 11 21
186 8 16
281 5 11
8 6 1
361 14 25
265 15 13
30 5 7
1 9 25
405 9 1
36 4 7
174 11 7
119 16 23
22 3 20
357 3 9
195 4 20
389 9 3
83 3 1
414 6 22
487 5 18
54 11 18
489 9 8
160 10 5
295 12 18
493 13 16
189 8 12
437 10 26
429 14 0
381 14 2
310 11 28
273 4 26
234 2 4
138 15 9
210 7 21
7 13 15
417 0 2
383 14 19
351 11 15
487 3 27
456 3 28
188 13 11
47 13 23
226 4 23
439 6 13
113 10 14
244 4 19
32 7 0
320 0 6
49 8 3
112 13 20
227 13 19
185 7 19
107 11 27
384 1 27
238 3 24
252 3 27
337 15 12
457 14 4
413 5 13
470 3 2
251 12 1
444 3 11
99 10 12
178 10 26
199 3 0
439 15 17
94 16 3
434 13 26
307 5 19
433 10 11
239 8 14
242 6 10
290 5 26
408 6 25
36 15 17
22 10 5
91 2 17
273 16 19
290 0 8
303 10 24
407 9 17
434 7 12
418 12 11
247 12 4
312 11 11
414 15 2
176 10 18
213 11 6
279 3 2
58 10 27
189 16 23
235 7 3
65 2 28
485 3 24
296 12 14
374 5 18
13 3 15
83 7 21
335 15 2
49 6 0
479 14 5
463 12 11
127 15 17
83 6 11
197 3 7
389 0 15
53 2 3
298 13 16
26 6 0
387 12 22
216 14 14
153 14 7
160 14 18
279 1 0
331 11 14
19 5 19
479 0 19
94 13 18
96 2 28
314 2 16
383 7 0
365 0 23
431 7 16
353 8 26
31 5 18
493 14 21
91 15 19
398 8 9
75 1 0
472 0 25
282 4 6
490 11 0
72 6 4
362 0 28
42 9 3
309 1 22
399 5 4
86 5 24
276 2 18
402 15 14
118 7 27
183 2 4
431 3 0
264 4 11
354 0 27
325 2 15
476 15 18
358 4 6
395 11 13
8 4 2
412 2 21
325 15 19
316 6 23
446 9 10
222 9 1
213 16 2
89 12 5
353 10 12
250 0 15
210 7 7
236 6 3
378 0 27
151 6 17
489 10 23
237 7 9
125 16 2
168 4 13
379 14 23
490 15 15
290 14 18
118 1 2
226 6 25
291 11 26
79 16 25
95 15 2
410 4 8
390 1 19
194 7 9
25 4 23
124 16 5
325 6 5
309 8 9
325 11 8
150 11 27
348 15 6
67 6 3
57 9 9
460 13 4
401 1 1
267 4 10
79 2 17
152 3 22
195 4 4
22 2 5
324 3 15
288 5 21
101 8 10
316 14 5
475 16 11
388 2 13
164 15 10
490 0 15
408 7 2
419 8 11
200 14 24
313 4 5
408 16 27
250 0 4
20 13 18
451 4 0
316 4 2
190 10 9
7 11 2
221 4 24
326 14 11
323 7 13
348 13 28
188 13 9
346 8 2
498 12 17
359 9 1
258 8 26
421 15 8
448 11 10
4 6 26
68 13 3
344 3 13
136 13 13
266 11 17
71 10 6
225 6 5
64 14 8
217 8 20
367 5 25
386 12 28
390 14 19
222 12 25
444 3 5
110 0 23
326 9 6
344 3 7
111 6 13
352 16 23
432 12 22
160 14 7
40 3 18
195 8 9
13 7 23
287 15 25
462 14 28
412 15 23
489 0 20
80 5 7
170 7 14
160 5 2
207 8 18
67 14 23
127 11 13
421 11 2
291 5 4
314 15 11
93 16 21
465 1 17
265 4 16
47 12 18
299 3 25
210 11 22
302 12 7
462 10 17
350 3 2
477 15 23
62 12 0
318 1 13
130 16 23
297 4 14
237 12 4
477 15 18
131 9 6
1 8 21
20 6 9
241 1 25
242 13 25
494 2 18
351 7 20
408 0 4
167 6 17
219 10 9
419 3 12
138 7 26
255 15 8
426 8 7
17 3 8
302 15 22
158 5 21
35 10 22
485 15 4
152 11 12
359 16 10
448 0 8
80 0 16
254 15 23
230 15 2
327 16 1
265 5 2
247 8 22
413 12 14
481 8 26
499 3 10
127 13 27
429 5 17
101 8 22
280 2 27
382 3 28
72 10 14
244 15 11
262 7 20
413 7 13
233 12 19
58 10 8
457 3 17
324 4 20
451 2 23
396 0 2
87 11 22
261 2 18
111 11 20
62 6 9
348 10 17
133 9 9
316 15 1
85 13 26
405 2 24
156 5 21
105 1 12
16 13 17
124 13 6
289 3 10
307 12 4
398 13 27
120 13 21
258 0 23
439 3 8
144 3 2
358 1 8
488 3 6
193 7 5
227 0 18
157 15 20
392 11 9
172 3 4
180 7 10
77 11 6
83 0 12
163 8 19
33 9 24
282 4 24
203 13 22
369 15 21
463 11 10
112 11 28
192 7 19
133 5 9
18 0 23
214 1 10
453 14 25
312 13 8
439 9 12
212 8 7
452 6 24
105 9 20
205 13 22
9 3 0
492 15 16
238 9 11
64 16 19
453 14 15
436 15 22
43 4 28
424 6 17
228 7 16
369 1 4
109 11 16
122 9 19
419 10 15
225 15 21
281 9 17
201 12 1
391 6 5
113 14 21
417 7 10
443 11 11
169 9 4
134 9 27
469 6 13
60 1 23
206 8 3
156 11 1
13 4 27
30 11 14
485 10 6
97 14 15
49 3 12
225 14 21
83 4 8
428 11 15
472 8 11
87 4 2
399 5 17
207 5 24
252 15 21
228 0 7
425 3 1
94 5 19
490 3 11
464 16 13
4 15 23
411 13 0
142 2 22
429 0 10
208 12 24
454 2 26
313 7 18
498 7 11
43 2 15
364 0 18
179 5 10
438 4 15
334 8 3
5 5 12
187 15 20
262 16 21
281 2 8
436 12 8
320 3 20
443 0 10
267 13 2
144 2 20
357 13 13
228 5 8
161 13 27
381 4 22
147 6 1
447 3 8
458 14 25
42 4 28
80 1 5
324 15 24
237 2 16
153 13 2
28 15 14
409 8 19
39 16 9
167 1 15
182 14 5
410 15 24
389 10 6
387 1 9
312 4 21
290 1 4
310 14 6
464 11 14
136 5 22
148 13 0
320 15 22
32 15 15
50 6 9
9 14 11
495 13 8
192 0 28
181 15 3
289 4 19
336 14 21
141 13 26
251 7 7
305 3 0
292 12 16
418 0 14
464 12 14
358 1 26
405 14 12
316 12 12
167 10 10
499 14 3
196 12 12
167 0 18
221 3 2
252 16 16
497 8 26
314 15 21
114 3 4
172 4 21
104 14 5
224 10 3
479 6 14
239 12 3
206 10 1
301 9 6
314 2 8
238 10 22
206 4 5
101 11 3
300 2 14
363 3 2
155 8 22
271 14 21
281 16 15
437 9 15
151 10 16
152 1 28
49 15 23
263 9 21
179 6 5
116 15 3
232 10 9
220 6 0
497 15 11
346 16 3
199 15 28
388 5 28
290 11 28
353 13 17
23 3 24
51 9 24
445 8 18
204 9 12
159 2 4
125 12 24
427 13 22
9 8 0
131 6 25
107 3 20
351 6 13
378 4 17
143 4 7
331 0 25
482 15 13
157 7 22
151 11 21
394 15 17
17 0 5
398 2 13
62 8 21
272 14 7
111 15 19
121 1 21
340 13 13
258 1 22
270 7 24
75 13 20
453 15 28
466 11 24
322 4 12
317 14 20
177 4 24
310 16 26
318 2 3
48 0 25
437 13 3
436 6 26
351 10 19
274 1 0
467 4 16
259 4 15
384 3 5
4 13 25
206 16 15
364 10 24
314 12 25
287 7 19
468 5 16
140 0 19
129 16 21
42 1 9
47 10 25
161 14 13
137 6 28
248 9 15
54 6 7
460 9 6
352 3 23
198 1 26
390 14 22
428 9 11
282 12 25
119 8 0
405 5 27
246 10 0
466 16 1
127 14 8
394 14 19
340 5 27
232 6 15
66 1 28
233 11 4
499 14 22
271 2 23
439 16 2
59 9 27
422 11 4
278 14 22
249 0 3
36 7 11
53 13 27
486 0 7
191 3 9
374 7 23
242 12 7
77 10 7
270 4 6
384 1 9
340 1 5
83 5 19
38 2 3
490 4 13
3 4 11
489 0 17
273 14 13
235 3 19
69 10 26
391 9 22
39 3 24
434 14 6
45 15 19
203 16 11
206 14 6
286 11 22
299 15 6
482 8 5
118 4 8
340 16 20
252 13 15
138 9 12
233 2 24
354 13 13
426 4 8
341 6 22
181 15 13
229 10 5
367 2 14
131 4 24
307 7 6
282 0 18
77 10 23
317 16 5
394 1 14
301 2 22
208 4 26
397 4 15
396 5 5
387 14 11
404 6 1
352 1 13
109 6 27
277 13 3
297 10 17
282 3 12
368 4 19
428 15 20
292 13 24
499 11 16
454 16 9
258 0 13
393 8 3
288 6 25
33 14 21
116 15 20
466 10 7
208 13 6
77 0 5
119 12 16
427 3 27
384 12 6
334 16 12
149 14 11
10 9 12
410 4 18
41 13 2
442 6 26
351 10 18
93 15 7
205 2 7
278 16 4
289 8 18
366 6 5
386 0 12
468 9 22
383 7 7
372 13 26
76 10 21
404 9 15
276 12 23
308 2 15
335 16 26
91 0 14
171 2 13
257 4 22
41 3 21
212 3 24
293 3 5
359 9 10
165 9 4
373 12 18
354 5 12
302 7 28
176 4 10
329 10 3
146 3 16
230 9 15
232 16 21
101 7 16
28 7 16
296 12 28
20 11 26
20 6 25
177 9 17
207 14 0
150 0 10
369 9 15
127 13 5
254 1 6
206 15 15
407 1 4
215 6 13
405 9 5
127 3 15
189 3 13
203 0 17
203 6 9
252 5 25
225 4 10
443 8 0
320 10 26
463 12 12
139 12 2
115 3 18
237 6 25
9 3 3
112 15 14
154 5 26
152 2 24
195 16 4
40 9 28
124 13 7
356 16 14
261 3 13
422 11 3
434 5 13
408 6 21
402 9 6
164 2 26
392 7 23
96 6 28
485 7 19
75 9 19
235 2 12
293 8 24
171 1 16
472 4 17
392 5 1
421 5 15
264 3 4
437 8 15
363 1 12
380 8 10
213 1 9
385 0 15
220 3 6
419 10 22
363 3 11
233 10 17
367 6 11
57 10 26
135 16 23
87 12 26
314 7 20
260 0 9
452 1 7
485 10 9
342 13 15
259 9 4
375 1 23
356 0 7
82 8 13
446 15 25
492 3 9
490 6 13
126 1 13
484 12 11
287 0 3
430 14 20
433 2 22
337 16 24
275 0 23
323 4 10
417 13 25
82 3 7
382 9 16
401 3 21
215 14 23
466 13 20
117 2 11
372 4 18
284 7 5
334 5 15
233 15 1
143 8 17
61 3 7
125 13 16
217 12 23
407 12 17
95 0 23
309 7 27
25 5 6
269 0 1
139 9 17
236 8 21
159 9 9
181 8 6
343 14 16
495 1 28
268 0 8
123 1 0
309 6 3
10 8 16
84 15 2
53 15 19
381 6 11
228 7 26
168 1 5
295 14 10
188 2 28
376 11 25
2 9 27
155 11 4
66 5 17
383 16 24
149 8 0
178 3 23
118 12 24
200 4 0
280 8 16
83 11 25
303 2 0
363 12 18
35 1 24
48 4 22
44 8 12
282 16 17
268 9 0
121 3 24
5 13 25
355 7 5
386 15 23
182 16 8
292 15 28
131 9 13
93 0 7
493 11 27
447 0 24
378 5 17
490 1 14
497 16 4
264 7 8
29 10 15
102 4 13
153 2 0
38 6 4
109 4 9
17 4 20
233 14 25
26 9 21
370 0 1
470 13 6
101 14 24
488 11 14
485 12 19
317 13 14
158 0 26
316 11 7
280 15 15
452 9 10
229 6 15
394 13 24
96 13 0
390 6 10
308 1 25
443 7 18
24 14 0
305 7 22
205 14 15
220 14 18
350 13 11
499 2 6
257 11 25
107 8 4
189 15 4
352 14 27
383 9 6
190 10 17
424 15 26
447 5 28
419 4 16
117 1 23
149 12 21
215 16 12
244 12 27
88 16 12
497 3 10
6 13 6
383 12 27
15 14 8
311 12 24
198 9 24
369 5 20
458 9 0
262 2 23
4 12 13
272 14 17
111 10 24
148 12 10
324 6 2
446 10 16
219 2 2
219 2 11
69 2 9
145 4 6
421 10 2
4 9 10
36 4 27
307 1 4
177 12 26
250 12 27
29 14 13
419 14 5
8 10 6
187 10 22
45 9 27
492 14 11
453 12 16
479 10 27
467 16 14
328 1 12
239 0 19
339 12 27
341 1 17
350 10 4
307 3 5
403 10 10
429 2 11
416 4 21
437 16 24
93 11 6
357 0 21
167 1 23
376 6 0
319 6 13
302 4 3
51 5 0
449 2 11
3 10 23
294 0 16
331 7 12
316 16 5
17 11 3
327 7 17
482 12 18
110 7 19
265 1 13
92 15 18
20 7 5
349 11 11
267 16 16
288 3 28
420 16 23
126 13 14
209 16 10
70 2 7
427 9 22
216 10 11
77 7 21
344 8 9
152 0 4
349 15 8
80 9 1
212 10 10
16 6 26
39 2 1
240 0 12
26 14 8
187 9 0
473 3 14
98 13 13
115 2 16
308 13 24
89 6 24
161 11 14
382 13 21
433 12 6
120 11 9
298 14 22
91 9 11
197 15 2
455 13 6
456 14 4
287 15 23
404 8 20
351 0 24
150 6 23
426 4 3
300 11 25
124 7 23
348 16 16
402 7 5
462 11 6
64 12 7
467 8 25
297 4 21
335 9 8
470 4 16
333 2 28
295 10 24
83 14 0
313 16 17
85 9 7
339 1 6
36 12 17
143 7 10
126 15 16
211 1 28
162 7 24
25 3 22
332 0 10
375 15 6
89 9 16
364 2 25
400 6 19
6 9 11
347 14 19
130 16 22
274 11 2
300 7 0
114 2 28
135 11 24
292 7 20
235 7 22
398 4 24
88 9 11
241 0 9
123 5 16
162 10 1
344 7 14
202 7 21
391 7 2
90 7 25
329 5 0
142 8 10
158 0 12
257 5 1
287 6 14
365 7 5
309 7 9
133 2 25
102 16 1
49 1 11
381 9 7
457 8 26
84 14 0
208 5 24
216 0 11
134 11 7
218 5 6
75 7 5
436 5 9
461 7 23
15 2 2
489 5 14
450 12 21
84 11 10
217 9 18
25 0 22
303 16 22
231 8 2
250 14 18
214 4 3
323 10 18
381 9 12
421 4 27
329 11 2
118 7 16
159 0 26
495 2 8
339 9 19
146 11 14
379 11 5
414 13 18
260 13 23
148 14 17
256 0 4
36 5 27
250 16 11
412 6 27
473 8 1
408 1 2
431 1 7
428 15 1
375 9 14
195 6 10
28 3 19
131 3 15
212 8 20
35 11 15
71 10 4
51 7 7
470 2 3
192 10 9
490 7 15
323 9 14
447 14 14
27 6 14
90 4 25
113 7 21
377 14 1
406 3 23
15 9 19
170 6 5
3 14 7
316 4 15
411 2 4
315 7 14
137 3 4
56 0 19
152 3 24
317 15 11
391 5 20
33 13 9
101 13 14
222 13 22
339 15 8
272 6 20
7 9 8
338 9 11
47 0 8
416 12 28
268 5 2
182 1 3
2 6 15
87 16 22
410 5 6
354 0 26
101 16 27
123 7 22
251 2 7
390 9 15
490 3 21
323 11 13
369 12 4
304 16 22
178 15 28
451 16 2
81 10 16
123 14 7
447 3 12
393 9 28
298 7 19
380 6 13
235 4 22
464 3 20
228 11 8
117 1 18
278 7 22
4 15 9
30 3 25
109 7 14
421 2 2
23 9 10
136 16 23
113 3 10
148 1 17
266 7 22
113 16 10
103 16 17
475 16 19
226 15 26
23 16 28
49 0 3
21 15 10
211 6 24
385 11 18
450 8 16
149 15 23
252 5 6
480 15 25
416 9 8
228 16 10
211 11 8
329 14 5
277 8 5
174 9 28
112 10 0
339 9 7
262 7 10
65 7 23
315 4 17
209 13 9
458 16 21
240 8 15
307 11 15
326 11 5
363 1 7
420 16 7
477 9 25
495 15 28
483 12 12
22 15 16
390 5 24
497 5 26
40 6 7
440 6 19
200 12 20
55 14 26
483 15 18
230 12 19
439 12 6
454 2 15
137 4 1
217 10 1
88 5 20
146 15 20
410 9 27
195 12 26
426 11 0
341 3 28
158 15 7
17 12 15
292 8 6
166 2 24
374 4 25
477 9 16
9 12 22
124 16 21
52 0 0
30 12 7
377 1 8
208 7 28
136 13 21
15 3 16
212 13 16
147 9 0
163 13 9
162 5 20
87 14 28
378 14 5
259 14 28
306 12 3
23 7 24
478 10 18
333 6 3
346 16 9
15 8 2
405 16 7
410 15 12
106 8 7
397 5 11
26 2 9
157 4 5
396 9 7
186 4 27
28 3 3
326 0 15
177 5 21
159 2 22
448 10 18
401 6 28
382 2 3
41 14 28
165 2 6
430 16 3
49 7 16
322 13 28
332 16 12
74 15 5
47 16 19
328 6 26
361 7 2
106 12 7
331 3 2
303 7 8
163 2 26
151 11 1
243 0 25
398 6 27
23 11 27
130 4 19
37 13 20
50 16 23
68 11 6
464 9 17
410 11 19
414 12 25
432 16 6
255 15 2
455 10 28
76 2 23
351 12 20
235 8 16
77 12 1
458 14 16
34 7 11
457 4 15
37 4 14
395 2 28
293 7 12
276 16 11
401 16 2
46 12 23
18 6 17
332 13 3
331 15 3
368 14 8
250 13 21
341 10 18
232 9 2
57 6 15
173 7 18
153 8 0
437 12 28
455 7 23
25 1 23
135 9 15
213 2 19
55 16 4
21 8 17
82 3 24
497 14 25
368 0 14
15 14 11
477 13 8
410 2 4
28 3 11
243 2 3
38 1 6
212 13 10
142 1 10
152 16 13
126 9 28
474 9 22
29 13 9
374 8 4
219 15 28
400 8 6
96 8 26
116 13 3
252 16 17
329 7 3
226 14 24
285 3 3
288 15 4
74 9 22
215 15 28
335 5 8
76 7 18
402 10 11
352 7 8
448 15 2
204 0 23
58 5 12
432 13 27
257 12 21
155 11 19
373 15 6
68 5 15
477 13 25
220 0 22
130 1 3
312 5 27
415 2 2
333 16 17
462 3 22
227 5 6
458 12 13
28 15 1
206 3 27
152 4 21
269 0 20
338 4 23
250 7 26
54 8 14
48 8 2
70 15 2
39 14 24
478 16 24
321 4 0
47 14 2
22 3 10
214 7 26
370 7 25
494 2 27
464 12 6
454 8 20
26 8 14
396 7 12
151 9 22
307 8 21
178 7 1
276 15 4
166 9 21
196 13 12
473 8 27
455 14 15
8 0 12
255 9 13
308 2 20
495 3 12
484 0 10
492 12 25
348 6 24
151 4 6
403 3 5
101 16 24
409 6 4
261 4 5
241 6 25
425 9 24
189 10 17
158 2 18
62 5 5
212 11 24
457 6 16
301 4 28
112 14 7
409 0 21
406 9 1
430 10 6
127 6 5
391 5 12
47 11 27
208 14 17
14 13 7
123 15 14
96 7 27
404 8 15
197 8 8
392 5 8
471 12 14
334 1 28
40 11 0
362 9 20
129 5 11
348 9 24
393 8 10
345 3 26
72 8 21
348 0 2
411 16 20
282 0 10
27 14 17
371 15 19
455 0 25
82 12 3
382 2 7
452 12 13
468 15 4
61 1 16
111 12 11
88 10 26
377 15 15
376 9 23
42 12 19
240 4 19
190 9 20
460 9 22
438 1 0
444 10 0
62 8 7
80 4 2
2 11 21
232 9 12
252 9 0
295 2 6
18 8 0
185 15 22
18 14 20
175 3 14
0 2 6
48 6 22
99 14 2
310 2 23
306 5 25
499 9 1
83 12 20
224 12 0
330 2 7
249 12 22
69 14 28
464 6 3
490 2 4
303 14 9
174 8 20
236 0 21
379 7 9
327 14 8
30 13 2
114 13 26
39 6 9
187 8 27
80 9 10
427 10 12
461 4 22
357 7 11
66 12 27
113 14 23
53 16 24
20 16 5
275 14 5
396 3 2
412 2 25
301 15 17
177 5 24
311 1 13
380 3 10
208 13 10
269 4 2
203 7 27
489 14 10
472 3 4
22 6 11
460 7 19
22 3 18
108 13 14
485 5 9
357 11 21
33 1 25
148 7 20
190 13 13
30 5 10
317 4 2
100 16 24
173 6 2
203 1 3
418 13 10
351 3 4
0 16 28
429 16 9
407 0 23
314 9 8
353 1 17
225 7 23
287 15 24
276 8 6
335 14 20
124 5 17
485 8 3
15 14 18
284 0 25
246 3 18
60 0 22
377 12 18
5 16 14
180 11 4
322 10 23
141 16 11
473 13 22
38 11 2
234 10 2
110 4 13
146 14 25
195 1 20
76 5 21
1 4 25
211 6 0
345 4 5
451 11 17
334 3 0
142 14 19
143 9 0
386 5 11
128 4 14
138 16 13
296 6 15
359 5 3
367 1 17
85 4 16
129 13 13
241 15 10
287 11 15
343 11 1
245 1 25
249 3 2
196 14 2
266 11 26
45 8 22
135 9 4
137 14 5
496 16 6
495 5 22
473 9 21
344 13 14
195 9 14
131 7 9
1 1 23
58 3 20
5 5 2
450 2 23
145 6 1
401 9 28
149 9 6
446 12 20
427 15 20
126 0 4
210 0 2
155 10 24
123 1 18
195 1 0
259 8 8
246 13 5
150 4 14
244 8 9
109 9 26
256 13 21
269 4 5
138 13 6
123 5 24
265 1 7
342 6 27
436 16 1
109 2 16
356 15 14
497 1 13
212 12 28
454 13 10
401 2 20
162 13 28
293 3 17
315 5 14
282 10 12
94 7 15
124 2 26
249 0 8
316 5 15
100 2 15
71 7 22
346 9 13
263 14 28
330 4 7
108 0 4
8 11 19
431 0 27
98 14 0
458 2 23
186 5 1
1 11 14
343 0 14
389 7 16
465 6 27
337 8 23
454 15 1
479 13 8
59 5 15
163 2 16
310 13 21
298 1 13
360 7 16
109 5 2
10 10 1
76 16 13
344 1 19
269 0 19
397 9 11
53 7 13
243 12 1
22 3 4
109 11 9
331 7 25
18 15 13
493 0 28
488 9 18
180 15 28
307 2 17
181 10 23
351 2 15
351 0 11
126 2 7
363 12 17
200 6 20
111 10 14
249 2 11
50 14 1
117 1 26
307 16 5
290 10 17
373 10 3
177 16 27
416 1 25
170 14 8
395 8 25
378 9 1
133 16 20
242 13 8
2 6 9
164 6 9
212 16 6
498 2 6
121 0 21
290 7 4
373 12 4
392 6 20
135 1 14
365 4 10
213 12 21
446 7 28
32 0 23
61 3 24
199 16 0
427 9 19
390 7 22
78 5 28
442 14 4
6 7 26
481 15 1
106 7 19
65 16 6
444 1 27
357 2 26
118 7 12
104 3 11
464 4 19
438 11 8
485 7 0
37 1 10
103 15 11
237 6 12
12 12 11
104 13 15
453 3 28
459 6 23
113 13 19
267 3 9
330 4 14
391 3 26
486 4 27
233 16 2
40 6 21
58 1 26
261 16 25
126 6 7
31 10 17
295 2 24
223 16 23
499 5 17
335 15 20
495 9 11
334 11 4
497 6 26
353 10 16
399 13 12
411 10 9
129 5 15
138 6 24
460 1 16
430 12 6
216 10 28
468 9 5
392 6 5
64 7 1
208 14 15
119 11 2
171 13 10
179 5 7
183 10 4
390 11 28
378 12 9
133 1 22
494 4 27
22 14 21
374 2 3
368 3 20
111 2 7
325 15 20
455 12 25
388 7 2
373 3 18
405 15 15
246 6 0
344 13 20
449 14 24
49 3 6
198 10 26
93 7 21
481 6 4
412 0 0
218 9 25
195 1 2
449 9 21
321 2 5
51 5 1
453 8 5
478 13 8
75 15 22
183 9 26
222 1 25
394 15 15
324 14 1
127 16 15
345 10 3
477 9 18
145 1 28
132 13 7
181 10 15
484 11 20
141 4 25
411 12 5
333 0 5
132 3 28
457 7 18
180 0 12
311 4 11
372 16 18
256 12 13
367 14 4
458 10 18
381 13 14
325 2 11
8 0 8
147 10 2
365 4 11
92 10 4
463 13 18
319 14 0
347 1 16
472 1 23
206 0 10
112 6 5
274 14 12
81 14 10
83 10 28
423 9 2
389 0 20
484 7 10
24 1 5
381 9 21
423 15 26
258 2 8
366 5 6
328 0 21
321 15 2
300 3 22
29 15 13
44 11 27
313 6 2
395 16 15
434 15 24
59 2 23
274 1 0
235 0 3
169 1 27
34 9 26
446 13 8
158 5 4
38 16 23
309 12 4
222 16 1
30 1 13
245 4 1
346 12 11
299 6 24
304 13 9
104 5 26
421 1 22
164 2 3
432 6 25
281 8 21
33 6 21
463 6 20
400 7 8
189 4 20
149 12 25
462 12 9
316 11 6
314 5 14
485 3 19
425 10 28
83 12 14
338 5 7
204 13 2
331 1 18
323 0 14
75 10 23
486 13 10
25 7 9
340 3 14
352 14 15
79 3 20
488 5 8
39 5 15
89 5 25
60 3 13
46 6 26
332 10 2
465 16 7
153 16 3
462 11 4
205 13 14
174 13 19
86 2 6
486 15 15
236 7 19
414 1 14
81 13 0
54 12 23
456 0 23
347 10 10
209 2 15
461 7 6
130 13 5
435 13 10
463 15 0
451 15 13
87 13 21
141 14 26
19 0 11
286 5 27
404 8 20
146 16 3
293 10 1
7 16 15
361 2 9
321 3 1
18 16 26
194 13 23
198 4 19
350 9 15
191 8 26
170 9 10
338 10 6
11 4 19
369 13 26
228 0 12
378 14 8
237 13 20
416 10 2
69 13 16
240 0 24
229 14 8
423 3 5
275 8 24
44 13 4
494 1 25
160 5 5
259 16 0
349 2 2
321 8 5
28 16 2
265 14 7
62 14 19
323 5 0
121 4 28
117 6 27
428 7 18
309 10 10
119 13 27
23 8 24
132 12 20
363 3 3
364 10 26
401 0 20
186 0 2
141 6 11
96 1 22
277 13 0
387 0 12
19 3 18
454 14 8
461 8 10
262 3 4
348 0 0
467 7 25
324 7 23
26 7 22
199 3 6
378 8 0
107 14 3
248 2 23
107 9 13
293 15 19
351 0 24
471 10 13
451 15 23
243 8 20
132 14 14
241 13 24
213 6 28
396 8 10
415 8 8
58 14 22
18 2 28
260 14 20
495 11 11
423 6 3
451 5 12
362 9 23
70 10 12
268 8 16
286 10 21
3 3 8
156 5 25
181 14 2
383 1 18
314 2 14
164 0 9
474 4 4
146 3 14
459 8 22
72 8 28
245 0 6
32 8 19
476 4 15
283 6 28
232 5 13
262 0 11
345 15 24
343 6 0
372 11 23
480 0 15
12 6 18
353 11 17
97 8 1
244 15 24
223 4 23
18 4 28
48 5 9
367 5 12
146 11 6
397 10 12
470 7 12
225 1 22
380 9 4
60 6 16
231 15 13
301 14 24
70 0 16
456 15 16
480 14 4
346 6 16
2 15 19
461 2 1
122 3 17
165 2 14
124 16 5
152 16 12
395 2 8
152 15 22
123 0 9
18 13 4
463 0 24
347 2 3
264 0 26
423 1 9
64 6 15
385 16 4
356 7 18
264 14 12
374 10 23
355 4 23
311 11 10
402 4 11
389 8 1
190 4 17
406 10 7
52 10 20
214 16 21
358 15 20
473 2 9
459 15 24
332 11 13
226 1 25
363 16 23
303 1 3
480 4 7
118 12 23
163 16 8
399 5 16
452 10 24
182 2 8
278 9 17
401 11 8
228 11 25
340 16 8
84 6 26
310 10 27
469 4 2
198 0 0
21 12 12
251 12 26
40 3 18
419 4 3
100 10 19
75 11 5
365 10 20
199 8 10
414 7 12
491 12 12
4 8 21
100 16 19
396 14 14
38 11 14
13 3 12
125 13 19
157 6 3
357 2 11
240 2 17
39 14 5
406 0 16
320 8 10
341 12 8
74 2 9
21 2 10
213 5 23
450 0 8
274 15 2
32 12 0
304 6 6
18 13 4
355 15 6
335 14 10
227 8 0
2 5 25
103 15 21
141 6 22
264 6 8
184 4 26
432 10 9
244 16 26
210 4 19
42 8 26
361 6 23
341 11 18
154 0 28
202 15 8
295 4 25
257 8 15
107 4 8
144 14 25
115 9 10
44 10 1
59 1 8
445 16 2
219 15 16
70 10 23
151 14 21
481 4 0
253 0 25
305 10 8
294 6 23
112 11 3
440 11 9
174 3 14
164 1 18
36 5 18
489 1 2
443 11 13
163 7 23
78 8 15
235 5 1
241 5 7
20 6 7
344 11 4
266 10 13
446 12 23
374 12 25
273 1 27
405 3 4
292 5 22
265 10 18
255 9 15
75 3 26
156 4 21
114 2 14
95 3 26
167 2 26
151 14 12
390 1 3
245 4 14
171 8 17
232 15 10
271 10 16
348 7 0
454 6 15
174 14 24
261 8 28
242 15 2
198 4 13
400 2 16
320 9 10
223 10 18
117 12 6
260 11 15
208 0 22
491 9 26
226 14 17
482 6 20
365 9 20
295 0 4
36 9 22
151 5 14
267 13 15
456 14 26
184 10 11
200 1 25
334 6 20
63 14 21
136 0 11
497 14 6
79 12 18
237 8 19
209 2 19
273 15 16
328 2 11
18 11 20
311 4 23
225 3 5
444 2 16
35 13 10
392 0 4
288 1 5
136 12 5
241 7 16
252 12 22
166 5 0
39 0 19
140 4 5
444 4 14
349 2 23
396 6 5
32 1 9
184 8 23
479 9 7
279 8 14
449 5 11
248 15 10
18 3 24
418 14 2
70 12 21
5 10 7
351 11 13
345 1 26
20 6 28
338 15 24
23 3 24
159 0 6
109 13 22
337 14 21
478 7 8
366 12 7
155 16 15
271 10 12
264 12 12
361 11 3
200 6 26
476 14 23
326 8 16
252 16 5
14 12 10
410 14 28
85 1 1
337 0 2
443 7 21
258 2 28
180 11 13
190 13 7
257 13 13
110 12 5
335 6 2
419 2 16
280 1 13
320 6 1
461 5 26
293 7 11
230 13 11
320 7 11
209 9 24
61 6 3
303 6 18
275 9 21
339 4 22
405 2 8
160 12 25
73 7 12
371 2 19
98 9 13
111 0 16
293 3 20
121 11 8
63 0 12
407 7 15
403 9 7
357 7 4
158 4 6
186 4 11
83 15 21
415 16 13
117 16 26
225 6 13
155 16 11
259 7 7
239 9 14
303 10 19
288 10 11
84 1 19
2 10 9
70 6 13
202 6 1
190 6 20
430 5 5
478 11 10
280 1 22
475 15 5
167 9 5
429 6 15
76 8 10
32 3 9
300 16 6
433 12 18
366 10 27
436 5 22
168 5 9
185 12 2
494 4 1
467 16 11
435 16 15
108 11 1
396 4 6
104 4 12
406 9 27
16 4 25
305 16 7
280 14 4
135 11 27
196 9 10
283 1 4
486 4 5
28 5 23
317 10 4
325 4 27
458 0 11
267 15 19
206 3 26
423 4 18
309 5 25
484 7 23
160 11 19
97 1 7
55 8 0
275 3 26
68 1 17
26 7 7
165 0 26
235 10 17
284 10 3
40 9 13
348 8 20
341 1 28
257 13 7
349 15 8
424 14 14
126 7 3
114 0 5
20 9 5
273 16 19
212 11 12
458 9 23
341 6 14
438 2 12
406 0 22
315 8 0
315 7 22
140 8 10
171 5 24
257 2 27
187 2 21
21 15 4
415 7 8
373 5 16
491 13 6
128 11 13
178 13 19
366 3 1
266 12 18
209 7 3
411 10 24
208 11 4
188 1 5
66 7 20
153 7 19
373 10 8
8 9 13
310 14 19
73 11 15
324 4 23
303 13 12
492 16 25
428 5 2
36 10 18
163 8 18
223 2 17
146 16 25
481 14 2
89 4 17
492 0 23
345 11 1
95 13 24
471 12 7
50 10 7
244 9 5
407 5 12
155 12 6
325 0 16
19 1 5
119 10 28
245 4 4
478 3 0
319 10 13
34 6 6
374 5 5
323 5 17
249 15 20
393 2 6
353 3 28
454 11 23
272 10 17
270 15 8
191 3 5
78 15 27
93 14 21
322 6 16
113 6 2
128 14 11
232 1 23
301 2 26
352 15 25
407 0 13
93 2 20
377 7 25
86 4 1
93 1 6
485 1 9
423 0 14
23 7 7
101 12 9
158 13 21
68 6 16
284 5 4
390 3 23
59 12 20
409 13 26
323 11 0
449 2 8
109 8 10
448 5 26
279 15 25
306 9 19
473 15 1
398 16 3
265 12 18
51 10 7
369 15 17
151 13 22
221 4 15
450 13 25
129 4 24
331 9 16
100 6 20
408 7 24
319 15 11
458 2 28
258 3 18
104 8 0
374 8 24
401 12 1
66 11 5
294 13 26
308 2 4
396 16 9
368 16 6
369 3 28
207 14 18
48 11 8
49 6 17
410 3 6
314 1 27
365 1 27
93 13 20
76 2 28
152 7 0
473 12 23
141 10 28
316 12 8
268 13 18
307 4 16
179 5 25
491 11 15
276 14 8
198 0 18
115 12 12
151 7 0
32 3 19
389 1 25
129 0 8
296 9 15
377 9 8
142 2 10
299 13 26
125 1 18
31 14 24
233 4 26
149 12 3
348 5 11
316 10 2
239 9 27
356 10 11
304 0 17
45 11 23
167 3 20
18 5 26
229 12 6
12 6 25
81 12 26
477 11 7
161 13 18
154 4 7
16 12 16
345 4 6
66 3 4
89 3 5
99 1 6
472 12 28
425 9 18
338 2 5
413 5 2
251 7 0
138 10 14
186 5 13
266 1 20
271 5 6
199 4 25
243 4 25
154 12 11
440 16 21
269 7 10
416 7 24
339 10 28
336 7 7
362 10 5
89 2 11
71 9 7
189 15 15
489 3 26
483 2 10
128 10 27
468 14 15
256 2 2
243 10 14
451 8 19
240 5 25
492 3 28
460 7 12
302 1 28
31 3 20
154 10 3
449 0 21
472 15 24
94 3 12
359 10 16
218 1 14
214 10 12
74 6 26
1 12 8
211 2 22
179 1 0
218 8 7
79 12 16
11 9 12
275 13 1
371 13 14
447 3 11
330 9 9
490 13 16
158 3 9
339 0 10
222 7 15
341 4 15
350 11 23
155 14 14
103 11 1
230 8 0
48 9 10
97 9 18
260 4 19
143 16 28
443 11 11
392 14 12
176 1 3
200 12 5
39 4 27
443 16 7
118 7 26
249 15 24
337 5 20
401 15 17
52 13 20
275 11 8
127 15 1
235 7 1
85 15 6
46 10 8
131 7 26
55 5 9
255 15 3
32 12 7
388 15 22
16 2 22
111 2 24
265 13 6
396 0 28
292 0 27
152 12 1
417 14 0
118 9 9
217 5 4
333 6 14
32 9 27
149 13 7
326 11 7
432 8 7
429 14 27
383 13 16
135 12 0
258 3 13
452 7 8
229 16 7
152 15 17
237 0 12
351 3 0
473 6 19
202 12 8
97 2 11
219 7 10
75 2 20
317 0 20
454 2 16
1 16 22
259 1 0
20 4 8
259 9 27
268 7 17
419 2 0
486 5 17
162 9 8
19 5 10
465 9 21
194 8 26
2 0 7
447 2 0
378 14 2
277 16 24
232 11 4
185 1 17
338 15 4
436 10 4
234 8 9
224 14 4
456 9 5
388 12 10
87 3 7
265 14 8
225 12 25
450 16 3
482 14 0
434 4 11
452 9 15
494 7 24
118 6 10
396 2 8
62 11 28
104 7 26
4 2 26
38 13 9
271 11 21
440 9 23
254 10 4
492 0 0
265 8 19
381 3 21
65 6 4
435 14 24
147 4 27
200 14 3
191 13 23
189 5 16
26 1 3
105 13 24
372 10 28
290 0 22
266 10 3
127 2 28
274 2 3
318 5 12
18 7 18
461 11 23
153 2 26
398 14 4
300 1 16
480 3 20
38 10 11
410 13 22
5 14 6
283 8 15
406 10 3
82 9 0
344 11 28
237 0 1
403 11 16
234 11 3
360 14 14
134 10 23
299 4 6
117 9 18
265 3 15
179 15 18
29 3 12
358 5 24
488 12 19
158 1 5
221 5 4
191 0 15
444 3 16
270 13 22
324 4 11
256 10 0
150 11 3
221 3 28
497 2 22
391 8 23
445 4 11
304 2 0
107 15 18
434 8 27
208 0 1
327 13 28
256 0 7
227 8 8
69 8 13
344 2 24
432 3 0
89 5 7
255 15 20
321 2 19
456 6 7
181 12 4
326 12 23
435 14 17
64 4 6
304 13 10
175 10 20
371 13 6
60 6 0
290 0 24
316 11 0
101 2 4
112 7 7
273 6 26
85 1 19
226 3 18
382 9 4
263 7 1
4 3 0
126 10 28
322 5 0
52 11 9
205 10 11
264 3 25
70 11 12
123 15 25
413 1 26
112 0 0
20 16 17
348 6 1
120 6 0
317 1 8
263 2 0
387 10 16
217 13 11
318 14 25
217 3 13
335 7 20
454 7 22
276 16 22
393 0 0
271 9 4
244 12 25
286 8 20
366 1 6
5 8 7
448 1 26
479 6 5
147 0 10
432 8 5
380 3 28
239 0 15
278 16 19
43 12 2
446 3 28
381 3 24
88 1 26
237 16 10
386 9 1
273 9 13
194 8 0
245 16 17
288 13 10
3 15 2
426 11 27
65 2 19
112 5 5
314 7 26
10 7 15
453 0 8
106 2 6
163 0 17
449 12 26
138 3 25
133 10 17
373 15 2
165 0 17
35 9 12
30 13 18
491 7 12
113 12 17
390 1 26
269 5 5
69 6 5
174 16 21
385 2 9
293 10 6
222 14 9
281 1 12
359 3 14
34 9 12
442 10 3
335 10 13
462 7 4
257 4 25
269 1 20
127 16 12
115 15 19
475 1 18
40 5 25
69 5 25
357 0 7
327 14 28
81 3 12
186 1 23
214 16 13
423 13 14
296 6 5
439 13 2
391 6 2
285 12 22
282 2 17
73 14 23
197 9 14
153 7 1
176 14 6
311 7 14
246 2 23
24 12 5
90 14 20
343 11 1
98 6 0
445 0 18
118 11 7
173 14 23
123 11 7
188 7 26
12 4 11
23 11 16
7 3 11
57 10 17
247 12 14
118 4 2
439 0 14
225 12 23
335 0 21
288 2 3
145 13 11
96 4 26
368 11 28
472 5 3
48 5 4
333 5 15
378 7 7
299 2 25
482 12 21
303 7 12
250 16 11
89 9 6
494 0 2
328 9 19
43 6 4
197 5 0
384 6 16
245 6 6
183 5 3
293 1 13
301 0 19
408 13 28
140 1 17
251 5 11
283 3 2
401 10 11
317 0 6
485 10 20
289 10 20
322 2 1
489 15 28
165 1 19
394 16 3
172 5 1
287 6 18
397 0 16
423 4 23
456 8 8
312 4 10
40 5 12
448 6 27
282 1 17
117 10 6
11 6 10
189 1 13
313 5 5
401 4 25
491 9 2
465 6 27
96 6 19
399 11 4
128 14 10
11 4 15
406 4 23
64 6 8
421 2 21
54 8 17
336 7 25
266 0 1
98 14 12
191 3 10
57 10 24
365 10 15
454 7 14
247 0 5
209 11 3
134 16 9
199 15 0
380 6 15
101 14 19
129 11 8
20 10 27
366 12 27
439 16 10
233 16 23
182 2 10
88 8 0
495 4 26
237 14 25
99 4 7
412 10 26
204 3 12
415 16 0
466 1 3
216 11 3
335 10 10
207 15 21
121 2 6
0 10 7
484 6 5
244 14 19
488 5 1
123 2 18
280 12 28
43 9 15
17 15 0
309 10 2
308 6 9
372 10 16
215 8 16
230 7 0
379 10 12
377 13 23
440 5 21
76 14 0
414 10 26
189 10 27
308 0 23
144 6 18
309 15 23
387 2 1
125 10 23
117 12 6
311 6 23
258 0 10
442 5 23
321 15 2
15 1 23
497 11 20
415 0 10
374 11 24
252 11 2
31 16 13
286 8 12
261 16 16
256 5 28
359 13 5
446 9 0
5 10 9
103 1 21
347 7 24
134 13 24
227 10 6
65 11 17
114 14 1
479 3 27
492 8 2
134 7 25
209 5 28
197 4 8
3 14 25
102 13 13
440 10 6
395 16 13
288 6 19
199 14 6
343 10 2
48 10 5
181 2 7
426 11 13
371 9 6
345 7 11
499 8 21
338 7 19
43 1 10
227 15 12
474 14 24
165 5 2
408 13 11
56 11 15
82 1 14
273 9 12
288 7 25
496 4 3
70 9 14
98 8 10
407 1 15
290 16 16
95 1 12
317 12 12
146 5 27
258 0 15
8 16 5
135 11 5
246 7 2
465 0 4
459 8 0
189 16 27
464 5 6
124 7 16
91 16 22
215 15 25
273 12 22
429 9 14
265 10 24
229 10 15
326 5 27
145 15 2
328 2 0
100 11 4
44 14 4
390 13 27
105 6 3
32 1 12
305 3 14
193 16 7
406 4 7
80 4 2
329 15 6
4 2 10
437 13 27
470 12 3
491 2 16
1 8 10
197 11 18
83 7 28
411 5 6
115 12 6
479 4 4
140 7 6
299 9 25
362 14 22
296 7 1
192 0 24
157 4 7
160 9 17
137 6 15
202 3 21
60 2 14
476 1 14
82 0 10
69 12 23
377 9 4
219 12 1
462 15 23
134 6 21
395 7 18
467 9 18
324 5 9
280 13 13
462 12 12
229 13 28
143 8 2
388 6 27
365 10 4
40 1 18
304 0 5
36 2 16
300 7 3
355 5 9
21 16 25
451 6 6
409 9 11
306 6 8
484 1 22
332 15 8
482 7 27
10 4 15
146 10 19
321 14 23
58 3 26
260 15 23
194 12 25
492 11 12
275 5 3
37 10 24
359 6 3
374 8 6
433 7 13
414 16 7
361 12 21
128 8 7
393 1 24
49 16 24
404 12 19
155 13 12
21 14 18
87 15 7
256 14 15
498 15 12
36 12 4
418 3 11
76 3 0
62 5 4
238 6 4
352 3 4
287 13 23
272 0 11
216 9 12
425 3 26
397 1 20
439 5 18
266 12 21
135 15 7
314 6 12
206 2 0
365 16 18
69 13 21
323 12 19
83 14 23
181 8 5
480 15 20
498 15 23
220 7 13
221 8 16
25 6 7
485 12 6
145 13 13
347 7 18
460 4 8
177 1 1
385 0 18
498 10 16
264 2 22
457 11 14
448 2 1
112 15 23
247 14 26
286 1 12
315 10 14
336 0 24
329 13 3
63 1 15
201 2 19
263 0 2
343 10 3
289 1 16
459 10 7
31 0 2
262 13 13
201 1 2
134 4 9
280 11 6
463 6 2
161 12 4
315 6 9
51 12 2
193 8 9
218 8 17
22 1 13
363 1 12
73 8 23
388 7 28
30 16 0
325 1 15
83 1 1
297 6 3
126 2 1
240 15 28
89 7 23
4 13 1
427 6 5
325 3 16
124 1 14
387 12 19
39 11 22
258 14 24
227 9 23
160 14 19
416 16 18
415 8 25
294 10 0
163 11 0
437 1 14
257 13 3
12 1 4
223 9 16
336 11 7
494 9 9
68 10 0
9 11 8
235 6 6
221 1 24
447 15 0
401 13 8
179 4 3
412 11 1
288 6 6
48 7 24
151 16 3
215 14 16
330 10 17
411 2 10
238 12 7
174 12 12
186 1 3
185 13 0
173 6 7
97 4 11
231 5 24
165 11 22
155 0 7
416 16 6
66 6 24
194 0 3
442 13 4
20 10 15
129 2 5
0 2 4
371 5 26
171 11 14
139 12 0
332 11 7
27 2 1
207 13 11
202 13 5
428 14 22
489 11 5
414 10 2
19 9 15
484 3 17
117 12 7
11 1 17
270 8 17
421 0 12
43 14 18
383 3 19
368 7 26
341 11 2
115 7 25
257 11 25
400 9 20
236 8 22
166 15 28
192 12 6
207 7 15
105 14 1
138 8 27
361 11 7
166 2 3
256 14 10
171 15 1
211 1 8
374 11 28
231 8 0
427 13 20
239 1 8
58 9 18
372 3 24
37 1 4
240 9 12
144 5 18
199 4 6
159 14 9
487 16 4
63 13 21
396 10 14
302 6 15
460 4 25
1 8 17
309 10 25
163 15 24
346 14 28
384 12 1
1 4 9
356 11 9
158 8 27
73 9 6
23 1 14
53 10 14
453 4 8
326 5 9
198 4 21
152 13 21
249 13 21
216 0 9
322 16 15
255 12 10
368 0 9
340 8 22
335 9 23
309 7 18
62 16 24
256 13 12
105 6 22
447 2 6
382 6 15
215 10 15
140 10 1
135 11 8
418 13 1
392 8 24
116 7 24
405 15 23
108 12 4
430 10 16
283 14 24
45 12 15
488 10 8
247 10 5
398 13 5
253 14 12
354 11 21
167 5 26
478 9 8
394 13 6
430 13 9
85 0 7
290 9 10
117 1 19
279 3 27
473 0 2
112 8 21
208 16 1
305 9 25
177 6 6
438 9 3
194 16 22
320 3 4
81 11 1
404 2 26
330 11 16
281 9 17
323 6 28
355 13 2
221 4 28
417 13 9
389 12 1
100 16 13
467 9 16
113 1 0
36 15 4
0 5 23
344 7 8
4 14 23
95 6 13
197 7 2
140 10 26
405 4 24
378 14 26
390 6 13
411 0 22
287 4 6
482 8 5
194 8 11
49 14 10
155 16 2
452 8 17
252 14 7
151 14 22
308 3 17
369 3 26
384 13 4
338 2 2
79 8 7
54 15 9
194 15 2
275 13 24
283 11 6
214 12 10
166 8 4
269 12 2
220 6 24
476 13 3
416 3 2
473 16 16
224 12 24
369 2 5
396 14 18
298 5 13
333 6 15
467 5 4
449 7 14
323 7 4
342 7 25
495 5 19
268 2 10
62 9 11
54 2 22
356 3 13
421 12 6
106 14 27
234 14 15
140 15 10
222 10 1
274 3 24
351 10 6
323 9 25
369 12 27
23 3 13
345 7 2
459 5 12
390 0 16
14 0 12
258 10 9
328 1 12
59 3 23
322 6 21
220 15 13
99 15 24
66 6 17
440 14 20
382 9 0
202 0 20
362 4 12
329 4 25
27 2 8
243 16 8
215 12 27
392 11 15
203 12 8
389 8 2
142 12 28
389 6 27
369 7 22
305 0 7
5 0 5
416 14 1
143 1 1
341 9 16
185 1 6
211 0 10
378 8 26
278 3 8
376 5 5
178 4 19
430 6 28
82 13 21
158 2 19
115 0 6
81 16 6
247 6 21
141 16 0
302 11 20
227 0 8
410 6 5
97 2 25
192 4 11
56 2 14
57 13 25
112 14 8
97 15 0
60 0 21
276 12 1
428 11 15
368 3 13
370 3 10
125 4 26
263 1 13
207 11 2
9 16 20
299 15 3
20 3 0
372 11 12
288 7 6
428 16 0
424 16 8
151 9 15
198 0 4
451 2 1
263 4 15
114 11 10
277 2 28
128 14 25
0 0 0
283 14 19
51 5 21
394 9 27
190 1 28
466 1 16
279 9 2
368 5 8
232 11 6
149 1 18
341 11 7
472 12 6
117 8 28
448 9 1
272 2 11
217 16 10
476 2 28
254 13 16
11 9 15
362 7 2
320 5 25
329 10 2
115 6 7
268 7 23
29 9 23
238 16 15
283 4 1
378 13 19
246 13 4
122 8 13
163 12 19
406 0 21
469 7 5
448 3 3
45 16 5
432 7 5
249 13 8
493 4 24
174 13 11
212 16 13
41 9 11
434 4 28
21 2 20
156 4 26
364 6 9
77 0 6
497 0 3
44 14 3
65 0 2
329 1 9
218 2 6
173 12 25
104 2 28
194 0 3
30 9 25
259 4 25
381 9 16
156 15 22
162 10 24
30 6 7
297 6 10
477 16 24
474 10 10
97 5 11
317 9 7
26 2 18
407 10 22
281 12 28
451 10 27
404 4 28
357 10 8
224 4 14
203 13 4
252 7 9
330 5 27
235 9 19
145 12 18
238 9 15
347 9 27
426 4 8
399 0 13
366 0 8
208 2 27
352 0 18
458 4 28
367 0 26
339 12 17
461 3 17
365 9 0
38 13 4
71 0 17
302 2 24
429 11 27
59 16 19
331 10 8
70 7 14
261 2 8
407 11 2
343 14 2
172 15 6
44 12 17
121 6 8
74 2 12
141 10 13
77 9 21
319 16 18
259 12 21
340 2 9
257 3 1
456 9 11
8 3 11
30 0 17
290 16 0
465 11 21
66 0 5
494 7 13
41 13 27
38 11 4
480 15 15
38 0 10
63 14 15
430 2 8
4 16 5
315 4 18
473 11 22
288 15 4
235 7 24
45 12 8
462 7 15
149 8 16
68 8 2
316 2 16
347 14 12
352 15 14
203 12 28
303 11 16
215 0 0
262 3 16
55 9 20
332 10 5
318 8 17
294 11 6
49 5 5
378 7 8
498 0 27
389 14 1
385 6 24
171 14 5
82 10 17
188 15 1
22 7 13
254 8 17
251 16 3
294 13 10
211 12 13
417 7 10
81 8 20
120 7 11
72 9 13
93 0 17
25 2 16
471 16 10
304 7 2
398 7 16
247 9 2
96 14 22
257 3 22
150 15 3
367 5 20
124 13 15
223 6 8
297 1 21
264 10 13
354 3 11
421 16 4
341 5 8
226 14 19
65 16 24
267 14 6
432 13 15
378 8 4
83 8 8
170 14 24
476 7 27
399 2 17
3 9 12
203 15 2
183 9 27
226 8 17
53 11 15
110 3 23
137 12 23
2 6 7
258 1 24
280 8 25
80 8 17
203 1 21
142 5 21
380 10 9
223 13 11
476 7 7
362 5 17
26 7 28
48 11 25
353 14 21
277 10 5
459 2 6
144 1 28
124 10 26
84 0 28
319 1 1
303 12 0
299 10 6
282 1 28
260 4 20
171 9 1
176 12 17
347 8 4
245 14 20
412 11 19
201 3 10
121 1 15
499 10 20
451 11 26
391 12 19
58 5 22
234 13 16
0 15 23
245 5 4
64 2 13
350 5 21
167 16 26
183 8 25
346 12 15
485 11 28
122 0 24
163 8 16
244 13 25
380 11 14
361 10 10
286 13 19
203 11 11
159 15 9
286 13 27
284 0 2
130 6 18
261 16 21
410 13 16
443 16 13
27 11 26
362 6 22
133 4 5
118 7 25
401 8 11
273 11 1
162 3 13
132 4 3
84 1 28
412 5 18
274 15 7
472 14 14
230 1 15
79 2 24
227 0 3
321 7 17
361 15 24
379 6 15
287 13 3
92 4 3
474 2 19
283 3 7
419 4 1
251 8 3
339 5 11
410 2 16
359 14 16
342 7 13
262 13 9
274 9 9
362 15 9
257 0 8
161 7 23
338 0 19
99 15 12
411 1 3
4 4 3
348 3 26
247 4 16
115 7 9
212 2 16
67 5 2
494 9 21
54 16 15
294 14 26
108 0 0
250 8 18
421 2 3
106 16 20
243 11 20
34 2 16
360 14 16
224 5 21
151 1 25
97 16 6
6 2 24
78 14 9
205 14 17
477 9 23
54 5 16
103 11 14
35 1 12
301 12 6
372 0 28
279 3 17
211 13 19
290 9 19
334 6 27
85 16 15
23 13 14
36 5 27
171 4 3
483 2 23
459 15 4
229 10 28
231 14 14
201 0 2
114 6 8
183 0 3
209 8 0
194 3 0
373 16 12
82 5 12
4 6 3
293 6 5
350 11 25
25 2 17
480 12 17
167 14 26
184 15 20
73 7 17
70 13 5
367 5 2
411 12 19
100 3 5
235 3 6
327 9 22
282 3 26
415 8 14
461 11 10
336 11 15
481 14 4
208 3 26
79 2 19
101 2 4
358 8 15
22 12 12
313 1 5
182 0 25
406 0 11
77 4 8
105 6 15
151 16 11
320 9 16
376 16 6
384 16 28
17 15 3
129 1 26
184 12 15
50 9 11
17 11 27
494 9 14
54 11 15
110 10 17
56 15 12
402 4 9
236 2 7
489 7 11
164 4 17
105 9 14
407 1 25
186 7 9
487 13 25
285 13 11
296 7 7
63 15 10
436 0 8
40 7 10
396 3 12
180 2 24
260 4 20
426 14 19
82 13 0
225 9 20
419 14 2
394 1 25
89 13 21
179 2 11
272 12 16
118 3 23
408 3 26
36 9 15
204 1 12
291 14 0
305 4 3
465 7 16
461 6 11
141 8 9
285 8 16
474 15 19
61 1 26
494 9 8
425 1 1
224 9 23
308 3 10
384 9 22
185 15 14
290 14 28
20 3 4
290 2 0
349 1 4
285 2 9
247 14 9
248 5 2
453 4 4
380 12 12
353 8 3
163 14 28
119 1 4
390 7 16
472 1 13
331 14 14
380 7 6
205 15 18
468 11 18
239 2 20
188 14 19
496 6 12
163 12 6
394 14 4
426 2 7
224 8 0
207 1 9
21 8 4
357 9 17
110 16 23
109 1 19
107 2 4
109 3 18
375 13 10
49 13 23
401 5 13
356 5 16
148 16 25
241 0 1
79 2 6
44 6 19
78 10 5
221 11 6
452 12 11
91 1 1
336 12 22
70 12 23
165 10 3
137 1 15
268 7 14
213 9 0
8 12 8
41 0 10
135 7 28
32 14 20
60 14 0
439 0 18
467 2 4
203 5 5
15 7 24
316 10 13
198 14 10
238 0 13
169 5 11
156 4 6
378 16 23
386 9 16
171 7 26
367 9 13
360 2 10
134 13 15
260 4 11
310 14 19
20 15 12
207 7 22
345 4 16
356 7 4
158 0 7
61 10 12
400 14 24
67 0 13
383 5 7
6 9 6
279 1 2
178 0 4
384 4 17
227 5 28
171 7 22
207 1 0
128 11 16
63 3 13
64 12 26
142 15 25
166 10 14
82 1 9
165 11 15
263 9 14
303 16 23
54 13 26
409 4 0
311 3 15
84 15 4
102 16 28
264 2 13
310 5 8
103 2 5
408 14 26
183 6 22
493 2 20
317 9 10
474 4 5
199 14 1
409 13 6
153 3 7
80 2 2
236 10 17
389 14 23
314 2 3
195 13 20
391 15 25
213 4 24
328 16 14
218 0 24
12 9 26
401 2 11
8 13 6
68 10 26
74 10 23
222 2 5
100 15 1
242 10 14
432 10 22
92 5 6
52 3 2
113 7 0
196 6 28
202 8 19
420 15 10
336 1 12
64 12 7
307 5 5
93 13 9
382 8 25
105 12 8
254 7 18
124 2 2
331 7 19
76 15 24
444 6 1
67 3 25
173 13 28
17 15 12
41 9 17
381 12 28
9 6 23
463 8 5
387 7 27
40 2 18
160 7 18
257 6 14
174 10 18
165 8 16
305 9 9
62 4 19
91 16 23
67 11 15
424 15 19
295 0 3
248 3 5
258 11 18
415 9 24
346 9 0
329 6 10
88 5 15
394 8 7
48 5 4
45 9 1
289 12 21
319 0 5
1 11 5
86 2 7
358 2 23
187 11 10
479 4 6
379 15 26
298 13 21
196 16 13
276 13 2
118 1 22
400 12 22
363 10 1
460 16 3
111 16 21
338 10 20
258 0 12
130 4 14
165 13 12
1 11 11
80 15 13
432 6 20
310 2 4
102 15 11
486 14 11
143 9 3
316 1 11
224 16 7
159 15 0
339 6 14
75 2 12
88 0 8
268 7 5
220 9 11
35 7 21
468 8 8
53 12 24
339 4 16
15 7 10
285 13 10
448 11 17
72 5 20
342 11 11
45 13 22
222 13 15
308 6 7
380 12 28
405 14 27
284 15 4
477 8 13
149 4 1
297 5 1
416 15 12
112 2 5
351 0 0
130 0 22
301 9 28
328 1 11
254 6 22
243 14 26
366 12 23
170 9 6
490 13 8
403 7 7
66 9 6
452 7 17
490 7 18
251 4 7
374 1 24
295 8 15
338 0 21
244 6 3
353 7 22
224 6 4
30 0 20
250 9 21
317 16 14
313 5 19
175 2 13
97 1 2
227 13 28
448 3 5
352 9 11
470 4 14
55 4 27
472 5 19
438 12 10
215 6 23
29 8 6
29 2 17
352 8 9
207 3 23
241 5 6
119 1 11
288 10 22
63 14 7
265 1 7
424 3 11
123 16 25
131 8 3
43 14 9
173 15 23
340 13 25
269 1 3
408 6 5
369 0 10
383 5 27
115 13 22
272 5 7
367 5 7
46 11 23
92 12 8
97 15 19
400 7 18
63 13 4
102 0 3
410 4 26
280 3 26
237 16 20
426 5 3
250 9 14
137 3 11
50 15 2
498 7 9
50 9 24
144 5 7
316 3 14
344 11 8
83 5 8
367 12 20
86 11 6
101 10 24
243 16 17
435 11 20
112 14 17
155 9 5
28 12 22
398 11 6
325 15 17
56 3 0
246 12 2
246 12 1
391 8 6
10 11 23
67 1 3
193 8 5
44 10 20
348 14 25
182 0 19
442 8 7
17 10 22
29 1 5
461 15 23
296 5 9
10 7 17
320 4 26
99 8 5
88 3 4
275 12 22
463 12 16
399 2 18
25 1 23
6 15 7
226 16 24
445 4 14
176 7 4
351 2 26
386 2 28
41 16 5
460 10 11
10 7 17
312 13 18
440 4 6
109 13 6
462 3 15
419 2 9
474 14 13
200 12 17
37 10 10
433 7 7
362 9 28
490 1 22
148 7 9
482 15 9
71 12 25
410 2 22
124 0 18
196 8 28
232 13 19
176 12 16
218 13 13
87 4 17
258 3 22
146 7 12
485 14 13
140 7 5
409 6 8
121 16 21
352 13 25
147 7 22
189 9 22
463 6 17
317 14 4
441 14 23
93 7 26
496 9 3
361 16 3
331 15 19
321 5 28
297 8 2
258 1 4
150 8 6
231 14 4
95 6 3
102 5 5
442 16 13
404 6 5
140 15 4
8 1 7
470 2 25
332 7 22
16 7 3
46 9 26
325 0 4
368 11 9
488 16 21
105 7 2
49 14 8
184 1 19
132 10 21
11 15 17
315 13 22
126 3 15
72 6 7
350 4 20
322 12 19
481 3 6
332 15 4
42 9 27
205 3 0
273 5 7
371 5 5
400 1 1
366 3 9
357 11 23
56 16 16
452 1 8
257 6 11
198 6 24
406 8 17
7 1 27
304 10 3
322 11 23
97 0 18
16 12 5
233 3 6
103 6 6
316 16 5
421 6 5
228 7 5
109 13 25
199 14 28
330 11 8
462 8 25
424 13 7
211 6 25
442 3 5
153 1 14
423 12 8
424 8 27
312 16 15
444 10 20
159 3 0
317 12 22
133 6 23
15 11 14
98 12 3
308 13 2
372 10 17
475 4 18
104 6 20
385 4 7
191 15 14
185 4 4
164 5 4
294 12 28
234 8 24
311 6 3
498 13 15
401 12 18
468 1 19
21 5 12
312 16 13
449 10 0
407 1 6
357 16 21
65 3 10
61 15 19
152 5 22
455 11 13
274 14 5
462 14 7
327 0 0
395 5 14
473 1 5
34 7 8
105 11 27
104 7 10
101 10 21
418 3 7
141 14 6
336 10 15
190 1 8
12 3 2
357 11 27
415 12 13
357 8 1
362 13 7
157 9 0
6 12 10
255 2 15
26 12 12
254 13 8
345 5 0
209 14 15
140 0 28
445 7 22
464 7 22
449 10 28
59 14 24
264 9 26
67 9 23
429 9 25
17 6 26
96 15 1
354 14 8
373 10 25
434 1 10
438 3 27
207 16 27
303 14 18
84 13 9
135 11 8
276 7 4
434 9 26
479 14 28
29 11 21
120 0 14
442 11 21
441 4 18
96 1 13
209 11 24
238 1 21
477 7 5
267 8 18
187 14 15
5 10 17
163 11 19
249 12 10
443 0 6
386 3 1
404 15 14
291 4 15
149 15 22
322 5 9
47 3 27
479 6 26
57 4 8
180 3 14
434 8 4
231 2 28
472 5 22
427 13 10
140 7 3
333 16 0
428 10 7
231 12 13
236 5 21
456 9 18
245 1 23
497 13 12
52 15 14
212 14 13
257 5 16
476 2 24
52 8 28
470 0 3
102 3 1
196 5 20
41 7 15
222 5 15
146 0 0
104 7 0
49 3 18
471 15 20
180 4 18
427 16 13
387 5 15
189 10 14
192 16 27
382 13 14
457 9 5
61 6 3
116 5 28
489 11 25
51 9 4
318 11 20
117 2 15
389 15 19
493 6 0
114 3 20
56 5 25
140 3 6
100 7 7
17 1 26
431 1 27
163 4 20
55 8 8
301 13 25
217 3 4
65 0 6
430 7 19
373 4 24
124 8 26
243 12 6
206 8 1
269 4 0
463 2 19
257 14 4
261 9 28
290 7 5
386 15 0
127 0 21
439 3 8
482 10 7
424 7 2
293 11 17
414 10 17
272 12 23
367 13 8
130 7 24
215 3 10
209 13 11
138 1 8
27 9 5
372 5 16
376 10 8
460 13 16
154 4 13
297 4 26
177 1 2
229 7 27
185 7 2
121 5 21
310 14 0
121 9 11
356 14 17
346 2 14
376 5 6
117 7 4
361 8 5
271 10 20
195 1 28
214 8 14
229 3 2
318 8 24
21 2 4
254 14 8
429 14 11
460 11 6
479 3 20
394 7 19
91 12 1
127 13 6
168 12 11
396 2 16
355 15 12
39 15 6
4 11 18
16 14 9
472 6 12
97 10 3
491 0 14
406 4 1
418 7 17
36 13 3
243 4 21
79 2 21
411 9 23
196 16 20
211 6 14
84 3 12
331 0 9
405 0 9
173 6 14
198 8 19
167 2 20
44 8 13
186 4 9
34 9 5
280 2 17
54 14 14
324 16 27
112 13 16
322 7 1
209 8 27
148 12 23
59 6 7
359 13 26
153 6 1
470 1 17
217 1 10
301 10 1
285 6 14
111 7 27
86 10 17
414 10 17
229 1 24
482 12 26
132 5 27
293 14 6
242 8 2
418 2 10
126 10 23
296 13 10
31 0 15
341 10 25
303 3 1
84 7 28
73 8 5
458 15 3
262 16 25
16 6 27
190 14 12
296 1 5
130 8 18
287 5 10
202 5 21
33 12 0
172 14 0
312 0 17
151 11 5
191 3 9
125 12 3
490 10 2
193 9 2
384 13 25
176 4 6
114 7 9
388 12 15
442 9 11
111 0 24
296 12 26
228 13 4
367 5 16
323 3 19
424 11 25
402 13 5
168 9 25
440 6 12
284 4 13
369 10 16
296 12 21
6 10 2
97 5 19
499 9 22
482 8 3
250 5 9
365 6 3
103 16 21
431 16 20
102 14 10
27 14 10
351 10 21
439 12 18
251 8 6
53 10 12
167 3 7
131 9 20
155 9 3
247 7 13
334 9 13
138 16 4
43 1 27
131 8 19
155 8 5
158 0 7
80 8 8
424 13 16
153 5 8
477 11 23
465 4 25
238 7 26
404 5 10
137 4 8
404 5 27
271 8 14
242 4 24
75 5 14
471 14 22
349 9 6
167 8 27
179 14 28
37 15 28
357 16 2
454 14 1
336 2 24
47 9 19
167 8 5
56 8 25
153 13 17
71 10 28
331 13 5
20 11 15
184 4 9
149 6 18
424 8 27
281 13 11
113 11 26
117 7 3
41 12 28
301 6 1
440 11 15
179 6 20
82 8 8
159 16 25
392 12 15
165 15 5
76 7 14
315 6 19
365 9 5
488 9 0
444 1 6
407 13 7
340 4 5
484 12 13
193 6 16
45 15 17
356 4 27
413 8 18
174 13 20
219 10 1
223 6 18
44 4 28
173 12 3
33 10 10
300 13 28
346 11 27
212 4 28
124 9 25
285 15 9
478 1 14
63 9 20
249 10 18
82 0 16
330 15 15
112 8 23
120 2 20
450 3 6
68 13 27
338 9 8
245 0 25
246 4 3
190 1 21
272 5 12
94 0 14
201 1 1
271 3 12
465 9 16
91 16 28
323 7 11
194 7 18
78 12 14
24 15 10
95 16 16
262 1 23
369 7 8
91 2 3
305 14 11
246 13 22
448 6 16
459 0 18
449 9 17
25 11 25
312 10 4
278 8 16
278 10 27
110 5 6
292 2 22
283 5 25
177 6 24
464 0 0
174 1 26
192 4 21
213 9 7
161 14 12
368 11 23
256 4 9
280 12 17
47 7 18
142 4 23
442 3 27
415 9 9
179 14 11
49 1 8
343 10 24
497 16 4
486 3 21
305 13 6
47 7 18
119 12 23
156 5 21
499 12 11
318 5 14
112 13 5
443 10 18
153 10 23
56 5 11
257 13 8
155 11 25
248 16 23
151 2 23
414 14 21
270 7 17
488 5 25
450 12 4
364 8 22
183 5 9
179 14 1
181 15 8
317 10 5
279 12 19
233 12 27
331 10 10
160 1 10
103 12 26
422 6 28
60 4 22
133 9 26
44 9 14
155 11 25
385 16 12
266 13 18
80 16 5
146 3 19
491 13 7
2 2 26
235 10 6
490 13 1
131 3 23
97 8 23
50 7 26
271 14 19
236 8 9
480 14 2
478 10 13
474 3 2
444 4 19
397 2 22
230 13 13
70 8 17
411 0 25
283 10 14
258 10 7
285 9 17
373 15 8
437 15 23
147 8 13
193 11 21
64 7 27
186 11 2
338 14 10
383 14 20
223 9 16
368 7 9
215 6 8
84 15 12
26 11 17
76 3 23
224 8 2
263 10 7
435 1 18
229 2 9
322 8 28
315 8 10
55 0 16
169 9 26
148 13 24
116 11 27
234 2 14
110 12 14
472 11 18
317 10 13
250 4 12
372 14 16
91 13 3
384 12 11
66 12 25
479 8 12
437 1 17
24 11 25
253 10 14
314 0 27
338 5 1
240 0 16
311 5 25
153 0 12
454 0 0
422 16 10
231 10 0
20 16 9
56 7 20
455 1 20
284 11 25
436 11 5
445 2 28
499 4 1
137 12 4
254 13 28
410 14 15
184 11 9
12 14 14
407 5 9
277 4 11
110 2 14
257 15 5
7 9 20
210 3 27
157 10 22
292 8 12
368 12 19
44 13 3
241 13 26
33 9 27
151 1 11
85 0 27
269 11 22
32 11 21
446 16 14
386 8 28
182 14 24
167 14 0
242 11 7
195 9 15
84 8 18
375 11 20
351 10 8
337 5 3
106 1 4
15 9 0
481 2 0
466 6 25
241 15 16
102 4 2
289 0 16
205 11 1
56 4 6
250 11 8
336 7 18
362 16 15
268 0 8
314 9 12
40 2 15
485 7 2
334 0 18
316 16 6
310 1 8
190 12 22
301 3 4
401 7 6
178 11 8
296 3 19
302 16 0
157 4 25
380 14 19
426 8 3
211 8 8
288 7 9
459 15 6
363 3 24
82 9 6
231 9 17
77 15 12
86 14 18
136 0 9
461 10 12
362 2 22
14 4 19
172 6 22
305 0 23
233 6 10
120 6 17
419 1 9
280 14 11
280 13 14
220 3 24
456 2 28
25 12 18
378 1 9
333 15 26
454 0 25
69 12 27
377 9 15
163 9 8
132 0 20
281 3 23
297 2 28
354 13 27
433 5 23
486 4 5
99 0 0
331 8 26
39 16 1
337 13 17
242 5 17
113 3 5
9 7 26
179 7 7
331 13 13
154 0 3
393 15 4
254 14 16
301 7 5
372 0 26
355 6 8
219 7 3
225 0 22
157 14 0
426 5 1
88 13 24
419 12 25
268 10 4
138 5 19
315 16 9
177 1 2
160 0 24
439 12 10
375 13 28
83 11 27
405 6 16
388 6 8
315 4 24
458 16 11
497 7 6
252 0 19
389 9 4
154 4 18
459 3 9
288 11 27
479 9 28
4 2 9
273 2 0
65 6 25
188 12 13
368 1 22
330 9 8
357 13 15
43 16 13
366 15 1
149 7 12
225 9 7
442 0 0
475 12 9
316 12 25
50 2 20
56 16 8
310 12 24
159 14 0
401 0 6
34 8 10
53 12 18
324 6 14
251 10 24
5 4 27
76 5 17
61 10 3
159 7 8
453 1 24
468 7 14
104 4 13
190 16 16
218 2 19
290 7 28
214 11 21
450 10 9
458 13 3
488 0 3
24 0 14
246 12 10
48 1 12
44 1 18
492 11 7
0 8 2
32 11 16
63 3 22
370 13 27
177 9 14
337 13 12
112 15 24
224 4 11
112 0 5
112 8 23
253 13 12
179 16 8
240 4 12
167 1 11
345 2 14
167 1 1
364 4 7
103 13 16
314 3 0
103 10 12
221 9 9
384 12 27
201 16 8
15 10 12
223 7 13
169 11 5
443 1 15
307 7 11
382 14 28
412 3 4
450 8 11
431 9 24
61 4 9
310 12 11
178 6 6
392 1 22
296 6 4
339 13 0
19 2 3
116 10 6
79 14 26
219 8 4
450 12 2
355 13 16
107 0 2
294 3 2
8 14 12
407 7 24
133 4 7
421 0 19
299 13 22
78 1 18
178 7 6
97 2 4
348 15 2
409 14 28
473 15 1
186 10 2
241 9 19
350 4 22
163 5 17
195 8 27
128 11 21
153 10 26
382 12 27
236 7 21
290 16 11
415 9 6
472 7 4
375 14 26
69 15 26
291 0 15
223 14 20
224 15 2
141 11 19
59 7 25
146 15 19
266 2 4
160 11 13
317 10 14
399 16 0
495 5 23
9 2 6
222 3 0
144 10 22
113 9 7
446 9 9
325 7 2
205 3 15
131 10 6
116 14 13
145 15 15
28 11 10
341 1 6
475 14 22
293 12 10
100 8 3
279 3 8
346 11 27
43 14 21
57 5 13
390 16 20
403 13 10
400 10 4
381 8 17
252 8 2
49 15 15
319 13 25
190 7 3
341 0 25
248 2 2
377 1 11
256 6 17
422 5 4
2 0 19
299 4 28
494 0 26
319 7 24
309 2 1
386 1 5
335 9 28
385 16 24
29 12 8
3 4 14
454 11 12
177 13 16
237 7 1
427 7 11
19 10 4
414 6 3
271 12 8
449 6 6
196 12 14
462 10 14
260 5 24
289 8 18
301 8 8
188 13 20
123 1 11
482 0 3
111 7 7
162 16 19
69 5 14
15 12 1
463 4 7
308 11 3
318 16 6
142 2 13
390 5 28
233 11 4
356 0 10
411 11 14
195 7 7
86 11 3
167 3 20
59 2 16
457 12 23
412 6 21
14 11 21
83 9 14
105 16 20
125 6 16
465 6 21
377 1 4
321 16 1
304 7 4
485 16 20
1 12 10
147 9 7
174 14 6
39 0 8
216 6 9
320 1 24
256 14 28
273 14 12
102 14 9
444 16 9
264 2 18
469 2 23
156 10 26
283 3 24
10 6 3
104 8 12
415 16 0
31 7 25
129 6 1
446 9 19
265 14 17
92 8 14
138 6 15
254 3 19
227 6 10
489 14 13
404 12 15
304 8 10
142 14 13
152 7 14
258 10 3
21 6 13
272 5 11
497 9 16
110 4 26
200 16 18
8 7 2
265 0 18
30 5 16
360 15 4
455 5 10
287 8 13
412 9 27
445 10 6
315 0 9
415 3 23
434 0 5
174 14 13
108 12 11
2 4 2
168 4 17
4 5 14
393 10 17
454 16 14
330 3 27
261 1 3
277 12 28
463 8 12
250 2 6
143 11 3
128 2 19
201 6 17
303 7 13
415 2 18
35 2 18
343 9 3
152 4 25
233 5 2
168 13 2
436 5 9
276 16 6
184 2 15
337 5 14
243 8 15
380 14 21
214 4 28
163 7 4
315 11 16
423 7 17
288 8 25
395 10 6
183 14 24
115 0 17
211 3 23
38 0 11
176 12 21
346 16 4
188 16 1
90 13 18
489 8 23
170 3 6
312 7 22
290 0 21
266 14 16
47 11 27
313 14 25
418 2 20
90 12 13
217 9 4
496 11 20
323 7 0
361 4 15
169 2 25
448 10 2
456 9 11
228 3 15
302 15 1
219 8 16
317 9 12
302 0 10
29 13 2
268 12 2
376 3 21
61 1 22
138 16 20
159 6 15
114 15 28
431 8 1
426 14 11
38 1 26
474 3 23
187 3 27
179 13 16
117 14 24
153 8 5
437 16 2
233 6 27
466 1 24
243 3 0
59 6 22
478 9 17
69 1 23
424 8 17
107 13 25
264 0 19
209 2 22
465 3 26
320 9 19
325 15 9
379 12 6
460 16 18
484 7 23
435 7 4
40 16 14
347 2 28
38 2 6
165 0 17
169 2 26
354 3 9
429 10 8
194 9 3
170 2 24
179 3 10
344 11 12
299 11 17
342 0 23
312 1 0
90 8 6
236 15 12
224 8 10
29 1 20
483 1 2
365 3 2
262 11 2
239 4 15
280 0 26
2 12 23
373 14 8
462 15 9
265 2 12
98 15 12
92 1 0
349 13 24
259 15 1
459 4 24
131 9 22
299 15 21
431 6 6
381 10 20
288 0 16
313 0 11
421 11 6
155 14 25
291 5 12
401 6 8
412 9 1
62 14 3
246 10 25
434 1 24
392 5 18
65 0 2
38 11 8
490 10 22
10 5 28
67 0 8
110 16 16
358 4 16
24 8 3
206 16 20
200 8 22
491 11 27
469 2 12
282 3 15
231 5 25
310 15 17
312 9 17
50 5 26
167 15 15
418 0 17
468 2 16
228 14 12
290 0 12
366 13 4
198 12 16
200 3 9
461 5 27
282 11 27
5 0 24
6 4 8
66 0 3
255 8 18
298 1 8
360 11 6
463 7 15
35 7 25
203 14 23
31 0 21
374 11 17
192 2 12
25 4 0
81 8 23
300 4 28
41 1 17
5 7 14
44 0 7
145 2 14
239 16 27
118 3 13
290 2 20
379 8 14
86 16 25
294 1 19
407 5 1
173 1 21
209 1 18
87 1 0
98 16 10
90 6 6
408 10 25
402 0 26
177 0 20
15 11 13
81 16 0
55 6 20
395 5 22
154 5 3
267 4 13
37 10 20
461 16 27
43 14 23
469 16 25
4 10 26
214 14 24
134 15 9
47 0 4
109 7 19
59 13 18
160 15 12
103 3 14
442 10 4
394 7 6
98 11 13
380 1 20
468 13 20
376 4 22
166 12 2
356 11 24
457 11 6
6 6 27
442 4 16
311 2 28
47 3 21
128 6 7
282 7 17
289 15 2
194 11 24
77 9 9
368 0 4
488 11 22
403 10 9
320 1 6
332 12 6
241 13 20
225 4 7
78 4 17
17 12 20
389 16 26
180 5 7
10 15 2
80 12 3
439 10 9
337 7 14
210 5 4
256 0 9
72 11 25
462 3 15
352 6 17
221 10 10
143 9 24
214 10 21
461 6 6
131 4 1
468 11 10
45 10 26
423 7 9
33 2 3
326 7 11
39 5 0
445 7 1
464 6 23
191 5 24
105 0 6
328 2 26
182 15 4
379 16 20
489 7 9
25 0 0
113 7 17
390 13 9
282 14 18
87 16 9
183 10 22
353 15 0
145 4 27
219 4 21
388 14 1
131 2 3
161 5 21
307 3 13
18 10 23
227 14 19
305 8 4
382 13 11
123 1 3
303 1 10
167 3 4
130 9 18
412 7 10
209 6 3
203 8 4
171 5 24
401 16 9
67 10 12
361 2 14
461 10 2
262 1 7
74 0 20
136 11 12
293 0 4
439 5 3
322 14 6
144 7 14
490 9 16
226 2 11
24 8 21
498 8 8
35 0 27
129 12 20
217 11 21
367 2 16
475 8 7
463 15 0
83 1 11
213 5 27
73 5 25
235 2 27
183 10 20
351 6 16
326 3 9
36 8 16
26 2 25
85 7 14
60 14 5
240 10 1
1 2 28
304 7 2
457 6 22
465 7 14
338 12 15
46 13 21
1 1 7
363 4 26
400 14 16
157 2 20
424 5 11
440 14 25
199 8 4
316 7 23
404 10 9
218 2 9
191 8 27
293 1 28
344 15 20
189 16 24
9 11 2
463 7 15
220 6 7
136 2 6
422 1 7
193 5 9
98 14 25
3 8 21
436 16 22
376 1 23
50 1 6
146 0 11
74 5 25
480 8 14
309 2 26
414 4 5
2 16 28
137 2 12
150 16 19
106 9 6
286 0 20
379 9 9
104 1 21
36 15 27
197 11 10
309 6 6
206 8 2
492 10 5
105 13 18
69 8 19
163 8 11
56 9 16
121 9 25
118 10 10
391 6 5
347 8 7
278 11 5
458 12 23
39 16 6
383 3 23
166 13 16
54 6 9
212 5 22
383 0 23
63 8 4
350 0 0
267 16 10
455 2 28
219 16 27
367 8 20
128 0 26
238 0 25
85 2 4
28 2 17
251 11 28
199 5 3
405 8 1
475 6 20
451 8 3
393 11 15
209 11 15
236 16 0
435 15 24
150 9 19
357 11 24
281 16 22
38 5 14
241 0 24
454 1 28
73 0 20
248 3 18
227 5 11
15 4 9
389 3 18
249 4 6
317 6 26
439 0 18
288 14 19
341 8 22
163 0 24
461 16 9
232 14 16
200 10 18
183 0 6
349 5 23
490 13 28
97 0 24
90 14 21
284 5 13
102 8 25
286 9 24
461 14 21
445 2 2
252 1 2
424 7 12
282 5 1
475 4 4
92 0 2
495 4 4
39 1 13
102 6 9
129 4 21
335 6 23
60 3 1
352 9 24
437 2 26
498 13 18
416 14 8
369 3 26
83 1 2
298 2 21
340 15 1
20 10 27
268 12 1
18 14 17
214 7 9
75 1 20
313 1 5
377 2 13
349 16 0
361 15 6
267 8 24
487 2 12
342 12 5
455 4 14
486 13 19
152 15 14
493 5 27
51 10 27
231 13 15
479 0 7
319 9 3
314 2 5
381 1 0
417 2 23
383 15 4
116 14 8
44 13 20
426 5 20
250 5 19
214 4 9
438 14 19
162 12 22
11 4 6
11 10 22
50 16 6
115 11 21
458 11 18
205 9 5
210 6 1
338 1 9
90 15 27
237 0 18
335 5 4
465 16 19
280 14 12
72 0 22
224 0 7
396 12 5
48 6 25
486 8 10
419 8 9
91 2 1
7 13 11
130 7 24
250 14 20
117 8 3
176 8 24
317 13 12
347 12 0
137 8 22
488 10 25
33 6 0
469 6 15
216 12 7
432 13 9
365 16 20
192 15 27
408 16 3
393 9 10
126 3 28
56 7 19
232 0 11
407 14 11
80 14 11
461 9 22
264 2 27
122 14 1
328 6 19
165 14 1
192 14 17
439 7 19
496 10 17
412 15 19
312 2 27
380 13 12
37 11 23
319 8 7
68 4 17
392 9 4
35 13 13
268 4 8
365 3 25
405 9 22
78 13 24
207 3 12
1 2 11
82 6 18
338 14 18
346 2 4
196 3 27
348 9 5
172 0 25
393 14 8
321 2 26
366 8 0
132 8 21
90 12 5
60 16 9
316 5 20
446 1 20
421 9 26
337 15 19
386 15 16
122 16 24
10 1 19
9 4 12
70 14 1
464 13 23
334 10 9
410 9 13
465 8 26
420 16 4
22 10 14
477 13 16
373 0 9
296 9 14
97 13 25
315 9 12
170 4 20
3 9 17
205 12 19
160 16 17
2 9 11
121 5 1
425 14 12
374 14 18
14 7 8
202 11 13
454 6 7
161 3 14
412 14 3
348 1 4
19 9 12
380 16 7
332 6 1
222 14 9
47 9 11
429 11 5
57 0 15
287 4 25
209 7 20
290 7 11
303 10 22
192 3 23
111 16 28
474 16 4
369 15 15
333 12 10
498 15 1
212 3 10
128 13 15
255 11 14
499 2 9
366 7 15
390 1 23
195 1 28
21 2 22
168 7 18
371 0 16
171 14 23
75 14 10
9 15 24
62 2 4
150 2 2
401 6 27
133 14 3
451 10 0
475 11 7
400 2 25
204 3 0
175 12 22
327 14 11
19 15 13
364 2 11
289 14 7
143 0 5
326 6 17
489 9 15
470 1 16
25 5 18
183 7 24
9 14 4
116 14 10
307 16 10
499 2 25
261 12 10
394 1 27
65 9 8
214 3 6
486 7 10
436 6 0
491 1 18
265 5 7
179 7 7
18 13 19
164 16 9
421 12 12
162 13 25
141 12 16
382 16 25
484 3 3
348 12 26
109 16 7
351 13 24
3 8 23
296 13 26
286 14 18
133 10 18
249 13 17
288 14 7
354 7 15
408 4 8
340 5 26
275 13 17
23 5 21
196 8 3
14 16 28
176 14 25
250 16 22
343 7 28
200 3 23
121 6 19
184 5 17
182 4 7
123 15 7
378 8 11
135 8 18
395 5 12
348 5 17
294 11 1
26 3 7
263 11 12
251 5 0
258 13 25
393 2 1
70 16 4
65 6 5
257 15 20
131 4 2
95 16 27
249 16 21
269 9 14
303 0 22
210 9 0
68 12 15
340 16 13
460 8 18
276 6 25
392 4 10
323 7 0
44 13 27
90 1 6
340 13 25
374 15 24
65 9 3
336 15 12
39 11 1
446 1 15
369 15 5
46 12 21
366 3 25
111 16 2
459 10 25
258 12 5
196 9 13
213 13 7
417 5 23
142 7 9
274 6 8
425 12 0
140 5 16
29 12 13
484 11 5
464 10 2
197 10 17
357 0 8
384 16 19
292 14 9
268 15 8
222 16 16
20 16 16
298 2 22
217 1 16
309 1 16
160 6 27
52 11 15
8 8 7
115 4 16
190 9 22
356 9 16
278 13 10
14 15 11
71 7 9
456 12 7
18 13 18
327 7 13
348 7 8
376 0 9
420 0 20
169 16 23
361 15 27
488 15 12
102 16 26
7 2 1
404 8 17
37 3 14
20 4 12
467 8 11
216 6 3
475 10 20
13 5 6
32 14 9
324 8 6
81 6 10
57 13 12
452 10 20
348 16 18
471 9 21
416 3 12
251 5 15
45 4 3
214 10 0
21 14 12
392 5 7
476 4 23
426 9 21
7 0 28
253 4 15
281 11 10
292 9 17
492 4 16
198 9 6
223 1 4
141 15 26
286 1 21
173 6 1
243 15 2
287 15 25
357 16 22
357 12 8
409 9 7
493 13 28
488 14 11
21 14 4
271 11 23
34 6 4
206 9 24
412 2 19
257 4 27
454 5 27
171 12 28
46 11 19
360 9 2
259 4 1
359 13 19
468 8 28
5 1 24
378 10 20
458 12 22
136 12 21
102 10 9
388 3 23
75 10 22
222 14 12
419 10 7
84 6 24
436 4 14
239 3 10
29 5 3
141 13 25
396 11 5
36 7 23
219 3 5
206 11 12
214 12 1
325 16 4
364 9 23
399 3 15
157 5 22
32 14 21
405 8 26
333 16 26
131 12 28
375 11 25
180 0 6
361 14 14
155 5 12
225 15 28
498 6 18
428 12 1
129 9 2
398 12 11
462 12 27
477 14 19
465 1 7
181 13 17
174 14 19
30 2 28
273 13 13
488 15 12
76 16 23
164 16 28
423 6 11
211 6 12
317 3 22
232 0 6
435 10 19
402 6 12
147 13 19
306 12 5
256 12 19
97 1 13
473 10 25
447 7 25
129 10 12
179 7 16
340 1 14
26 0 24
371 5 5
341 0 12
208 14 2
447 3 19
3 9 13
281 5 25
48 2 24
251 16 4
306 5 15
456 14 5
376 14 0
196 15 14
494 12 23
273 14 2
489 1 15
52 2 5
329 2 1
283 2 15
290 7 14
448 5 13
125 5 5
29 7 1
203 5 21
263 12 25
198 15 17
337 15 19
306 3 9
142 15 12
475 12 2
473 11 19
463 1 10
389 13 4
74 8 12
190 1 8
303 4 24
66 16 10
293 14 19
348 12 15
88 4 18
287 16 9
96 6 21
378 15 25
77 3 7
307 10 27
272 0 12
18 12 24
160 11 6
131 1 4
105 0 0
349 5 4
137 1 17
489 7 2
483 16 23
303 13 4
152 8 10
164 12 12
32 6 6
431 10 13
414 8 1
275 9 16
458 16 16
339 14 18
462 5 19
222 8 6
431 10 23
341 8 6
365 9 7
172 9 20
435 1 23
480 7 21
347 13 25
44 1 11
183 15 16
220 7 18
493 3 10
99 2 6
260 4 2
217 3 17
272 12 6
364 2 6
344 16 5
199 8 3
272 7 0
244 16 26
435 16 2
141 4 26
157 0 24
285 2 27
156 5 21
499 1 3
469 5 25
207 9 19
341 2 9
433 2 12
39 16 22
426 13 10
210 9 27
60 7 20
388 14 9
412 0 8
95 14 11
381 2 26
131 15 2
364 5 20
267 16 6
203 2 20
6 14 19
311 11 19
82 14 12
434 9 24
296 0 10
346 14 9
240 2 14
322 1 1
21 13 11
366 0 20
134 16 26
283 13 13
416 0 11
283 2 15
323 5 28
109 10 8
310 4 28
309 5 14
363 12 16
479 7 13
184 16 13
38 9 18
281 1 19
305 4 1
284 5 23
189 0 15
161 5 5
75 9 13
285 4 21
473 9 22
401 4 17
490 7 15
159 11 18
194 3 0
343 15 24
303 11 15
492 5 25
301 1 1
90 10 0
400 10 9
128 14 2
260 4 2
457 14 11
286 11 27
169 0 5
201 13 16
134 9 8
273 16 23
437 5 19
459 2 6
243 1 13
271 5 22
178 5 28
224 4 20
117 1 21
231 1 4
375 6 4
164 14 22
252 12 8
404 15 22
191 12 6
478 9 6
488 16 2
192 15 26
162 14 26
4 16 10
124 7 18
30 4 5
410 4 15
91 0 18
290 8 25
310 7 2
248 2 1
93 0 16
11 13 4
29 3 16
193 15 12
462 16 14
44 11 19
449 5 25
17 6 14
43 10 11
173 4 24
174 16 25
89 13 1
287 7 25
290 7 4
190 16 25
400 8 13
257 4 5
212 11 3
32 5 10
272 11 27
369 12 25
282 11 20
365 13 25
386 4 12
7 4 6
480 1 24
391 12 23
388 5 13
208 5 28
340 14 7
126 15 7
450 9 4
287 3 15
128 4 0
211 1 15
306 0 4
374 5 26
359 14 18
41 6 25
379 14 5
455 5 28
323 1 16
124 8 21
275 2 21
161 0 3
476 15 24
227 1 20
10 5 18
145 12 26
111 16 14
445 5 18
489 15 5
20 10 16
391 11 0
9 11 19
368 6 6
475 7 12
445 4 11
229 2 26
53 15 9
277 14 16
340 14 13
115 6 12
219 1 21
24 2 9
367 16 4
352 2 1
362 16 13
126 6 15
235 14 8
396 3 14
17 13 18
96 13 7
340 1 3
127 7 27
384 15 21
412 6 27
451 9 25
82 7 28
272 11 4
262 1 26
245 12 14
446 10 1
344 8 8
187 3 11
271 9 4
71 12 26
310 6 17
189 14 9
29 4 0
461 4 15
323 5 4
56 11 16
493 10 25
243 1 3
452 13 0
243 14 3
12 15 2
291 6 11
259 14 10
290 8 6
182 14 10
309 5 18
88 14 1
377 13 0
347 11 27
258 5 14
351 10 1
239 2 18
92 1 12
193 0 20
165 6 9
302 0 3
139 4 15
160 0 5
375 16 11
10 10 17
234 10 26
442 7 10
76 16 2
437 2 15
219 1 9
74 10 7
403 12 15
436 8 22
102 5 25
166 4 13
463 15 23
139 16 0
76 4 18
188 16 21
429 3 21
322 15 1
60 9 2
18 14 15
415 7 20
214 2 9
444 16 7
163 2 28
401 9 5
475 3 1
380 10 21
190 12 22
83 10 3
215 10 7
42 3 11
32 11 13
161 3 22
9 12 13
439 10 15
458 14 4
194 10 8
16 13 4
476 7 19
124 6 4
287 3 12
441 1 17
73 2 0
241 0 14
476 15 19
167 11 26
297 10 0
24 6 12
345 14 16
61 9 4
81 3 9
208 2 18
483 9 5
32 12 20
207 14 4
60 13 14
49 2 3
85 13 20
395 15 3
402 9 22
335 9 3
209 10 28
431 7 2
328 13 12
320 10 14
89 2 13
401 13 27
401 5 17
359 6 5
230 8 18
242 14 8
237 7 22
259 12 7
227 11 5
412 5 26
17 8 25
132 3 26
40 11 21
140 11 18
98 4 19
21 16 20
227 5 24
308 10 13
9 4 19
442 12 6
265 7 1
188 0 14
236 10 17
98 7 8
167 11 21
321 0 26
349 4 0
143 8 22
250 3 26
9 3 3
133 14 18
9 12 20
38 6 8
483 14 17
0 13 9
426 15 24
389 16 22
431 10 6
111 5 7
392 2 26
85 12 5
229 0 5
237 14 4
486 9 12
228 5 6
295 9 12
33 7 24
7 4 27
424 14 16
157 0 17
496 7 19
107 4 23
353 6 18
418 13 0
47 15 13
141 8 14
452 10 26
441 16 17
250 11 20
144 0 2
63 5 13
206 14 4
354 10 18
424 13 11
27 12 17
400 1 15
427 11 7
417 9 17
315 1 23
437 13 11
13 7 6
49 3 21
435 2 0
233 7 18
344 0 16
5 11 26
457 9 0
182 8 13
268 16 4
394 13 2
139 10 24
395 3 6
188 10 25
454 2 1
245 10 4
401 6 6
421 9 19
58 4 3
303 16 20
141 9 20
18 9 20
387 11 23
128 7 28
179 1 7
217 14 28
300 3 17
107 7 11
221 6 10
299 11 14
16 5 25
334 12 12
128 3 14
280 12 22
379 8 16
333 1 18
235 14 1
472 0 3
72 10 22
215 12 18
445 1 6
67 0 0
311 15 23
240 15 13
139 8 16
53 16 24
128 13 8
397 6 19
121 13 16
356 2 10
21 9 26
217 5 4
408 16 25
260 10 19
337 4 14
187 8 18
309 14 25
268 13 7
410 13 7
215 6 19
365 0 9
180 1 13
74 14 13
281 15 16
351 7 2
321 16 17
323 9 17
467 0 19
150 8 10
452 12 19
484 7 0
245 0 14
455 3 16
10 1 21
426 7 24
482 16 7
359 12 8
499 5 10
433 8 4
273 15 18
36 12 4
420 0 5
488 2 3
323 9 27
332 1 23
281 8 0
372 11 7
235 2 18
207 6 19
375 10 2
67 15 8
170 7 17
102 12 5
78 10 24
104 4 7
1 9 19
427 13 13
115 7 25
110 15 17
158 13 12
491 12 16
310 2 21
451 5 13
47 1 27
310 14 17
499 13 19
449 9 22
498 11 7
377 3 23
385 14 13
340 1 10
345 9 27
83 10 3
251 2 10
209 10 11
383 16 14
104 16 7
79 14 27
286 16 27
28 9 27
209 2 22
225 15 2
125 1 14
173 4 15
53 0 7
448 8 17
282 10 10
343 16 15
156 6 25
209 6 6
258 12 18
358 10 24
375 12 20
268 0 18
97 11 16
381 0 4
333 8 22
258 0 5
124 15 5
306 15 17
365 13 27
11 2 14
484 15 25
93 12 22
173 13 6
59 4 16
221 7 25
292 0 22
14 12 1
349 2 12
284 5 6
79 8 13
376 15 13
325 5 24
473 8 21
309 4 26
194 11 15
189 4 27
450 6 1
166 4 9
313 2 9
223 8 25
75 4 12
154 16 13
19 14 26
243 3 13
461 0 15
264 12 7
77 12 26
329 13 20
237 8 18
307 4 15
349 15 5
124 6 2
162 3 26
5 15 22
194 2 6
123 13 28
350 0 4
78 13 11
457 6 5
479 0 5
488 2 9
159 4 28
499 11 15
4 13 1
43 7 21
44 13 10
349 0 14
145 16 9
113 12 27
337 12 18
150 11 20
345 6 16
156 9 27
266 10 14
244 6 12
346 6 2
497 16 6
471 8 6
317 8 3
75 7 17
114 10 18
285 3 14
204 6 17
417 16 1
337 11 22
76 12 28
14 9 16
291 14 9
213 11 7
400 5 18
428 0 18
54 15 19
431 13 6
297 13 5
93 12 27
410 6 10
303 13 7
228 16 17
195 0 7
106 3 14
441 7 19
231 13 12
396 7 18
336 4 14
387 11 21
44 11 22
469 11 15
386 4 4
70 5 7
34 6 26
59 14 23
179 5 9
119 1 16
406 0 2
157 9 24
27 1 16
136 11 2
310 13 22
472 9 19
485 3 25
215 9 20
53 5 11
23 11 14
356 3 5
63 16 19
279 9 18
400 11 3
11 7 12
262 12 26
94 11 16
260 0 13
307 16 14
268 1 6
229 13 1
256 9 18
26 0 12
442 7 22
474 12 22
218 1 18
365 9 28
462 1 25
243 13 2
33 5 24
146 1 7
154 0 24
218 13 0
288 8 1
37 0 27
350 4 18
216 15 28
388 7 19
193 7 10
49 12 12
461 9 7
441 9 26
358 5 21
247 6 28
149 10 23
389 3 20
96 7 27
467 15 11
258 13 6
424 0 10
429 10 16
92 11 20
221 6 7
411 0 2
314 4 18
284 10 13
174 8 18
115 0 4
480 13 22
367 4 3
146 15 13
195 10 6
298 12 26
160 0 24
155 9 2
28 9 1
474 13 26
432 2 10
315 13 23
56 4 15
476 13 0
198 2 23
186 5 12
482 11 4
232 10 3
260 15 8
210 11 2
255 8 21
274 2 19
5 4 5
218 14 22
420 7 22
97 0 7
72 0 13
105 1 5
20 8 2
172 6 24
167 13 21
392 1 4
385 13 18
126 9 12
394 0 19
50 6 14
230 10 13
282 3 21
120 16 23
31 0 8
159 11 6
313 11 10
3 10 14
133 7 24
249 14 4
465 2 19
434 10 20
417 2 20
47 4 14
344 4 24
292 11 11
20 15 18
421 15 16
475 7 8
1 3 26
355 5 15
329 4 4
384 9 10
37 7 0
287 10 10
218 8 19
139 6 10
132 10 24
14 0 19
355 13 20
392 7 19
67 14 26
19 9 20
48 9 8
60 14 5
53 3 1
42 13 22
314 5 14
473 9 13
343 9 11
204 12 0
214 14 4
360 3 18
319 16 13
479 14 16
140 7 11
255 10 7
449 12 22
399 2 19
34 15 25
449 7 16
120 8 27
434 7 27
86 14 12
304 1 27
475 16 3
179 11 21
115 3 19
328 0 0
9 7 17
54 1 7
455 8 0
60 13 26
322 2 28
373 2 11
285 0 22
419 1 23
19 7 22
271 4 24
480 7 10
316 11 21
401 11 18
71 13 20
175 10 0
434 3 19
202 12 22
331 11 4
364 6 8
222 13 13
249 8 19
421 11 4
470 9 19
266 9 7
66 5 24
100 5 16
478 4 4
320 12 10
40 4 20
204 3 16
301 11 19
419 11 4
418 10 7
161 5 18
215 5 10
110 1 10
10 9 19
193 10 22
305 11 11
463 10 2
115 14 3
179 13 24
493 10 28
153 12 24
287 2 2
283 11 19
335 5 0
27 5 4
223 8 26
61 3 6
426 4 22
197 0 7
127 6 28
419 10 1
331 14 6
316 3 2
81 3 25
384 15 4
143 0 14
339 3 6
50 11 27
291 0 16
339 10 6
164 9 15
267 6 14
117 3 2
265 10 17
218 11 0
397 15 13
315 0 28
198 10 24
119 5 15
479 13 5
114 5 9
41 13 27
239 15 22
277 14 19
399 11 2
371 13 10
52 2 26
310 10 14
393 2 4
133 4 13
327 5 8
428 16 8
485 5 3
444 4 8
310 3 25
447 1 13
198 15 17
69 1 4
213 12 11
488 2 4
375 2 24
270 11 16
386 8 17
256 13 12
336 9 17
341 16 17
252 15 17
163 0 17
334 15 28
279 0 5
131 4 20
287 4 1
303 15 1
165 9 17
273 15 22
308 4 17
485 16 13
437 13 28
491 4 9
181 6 18
183 14 28
395 11 0
454 12 27
415 0 28
469 1 3
365 8 22
279 7 13
485 5 24
337 16 25
98 1 13
239 14 28
499 3 26
402 11 26
113 0 25
477 0 4
370 14 19
366 6 22
277 13 12
279 0 19
399 1 0
105 6 19
94 10 25
67 13 5
254 9 22
358 3 22
256 14 20
400 11 11
485 10 9
113 16 21
164 11 20
396 12 6
342 0 27
419 11 12
223 10 9
117 6 10
263 7 28
475 7 16
374 7 0
75 1 17
55 10 9
479 6 4
422 16 6
162 10 12
393 1 28
324 12 16
361 14 3
399 6 18
385 8 8
386 3 25
9 10 3
58 5 14
115 3 8
236 3 24
410 0 16
312 5 16
136 4 7
274 13 15
58 5 21
212 13 11
74 11 12
366 2 6
160 11 2
391 7 1
87 11 12
223 9 22
229 7 5
48 1 12
60 3 1
370 13 28
480 4 20
369 7 4
56 1 1
185 8 21
86 6 27
169 9 10
144 12 7
102 9 3
485 14 0
186 9 25
367 6 21
209 11 22
76 15 24
46 15 2
230 12 21
97 12 5
224 8 11
74 10 11
225 7 13
428 2 10
166 16 18
244 4 23
7 14 20
332 16 17
9 12 19
168 16 20
3 2 16
348 10 28
127 6 15
177 13 24
312 8 18
275 15 21
417 8 21
153 0 28
426 4 5
399 4 0
483 5 18
394 10 20
392 9 28
203 8 6
433 13 7
441 3 10
169 5 0
280 15 0
118 2 24
394 16 7
81 2 13
313 13 7
258 5 20
380 8 8
354 10 8
81 6 17
25 7 28
478 8 28
379 3 4
109 0 0
271 10 18
491 8 17
462 7 8
183 6 18
232 12 13
127 7 0
434 9 24
71 4 2
146 15 13
239 12 27
142 0 25
448 11 18
363 7 26
415 4 19
437 13 14
104 14 26
128 14 7
337 10 28
435 13 14
180 6 23
375 16 12
447 9 17
418 2 2
270 14 14
463 1 6
77 2 25
395 10 15
374 9 17
434 14 26
339 7 14
449 9 1
301 0 27
484 13 5
193 1 19
127 4 28
246 11 1
461 13 0
217 12 6
260 16 14
395 13 4
355 6 14
261 6 27
220 10 3
39 7 6
323 13 26
257 5 21
247 2 9
287 2 18
471 5 8
119 16 6
96 3 1
117 12 25
191 14 28
250 12 13
403 6 3
108 16 8
13 12 0
333 13 23
259 10 0
334 11 25
42 12 5
201 6 4
141 2 22
21 11 7
160 9 5
180 6 11
450 4 12
191 10 0
333 13 11
462 8 10
34 2 4
144 2 0
457 5 23
170 2 24
216 13 27
267 0 20
314 2 13
390 1 17
452 2 8
246 14 6
339 0 12
101 16 0
375 16 28
437 1 21
9 7 28
37 9 27
115 13 19
228 13 23
312 6 11
136 16 21
394 5 13
369 5 3
351 5 1
380 2 2
42 1 27
390 14 6
292 16 13
424 11 20
171 16 0
302 12 3
469 2 25
72 8 6
416 15 1
471 7 17
94 2 19
241 6 16
223 9 10
105 14 1
137 8 25
227 6 8
346 12 10
478 11 24
85 9 19
167 1 24
281 4 2
116 14 13
377 4 28
242 14 26
45 7 16
287 8 6
488 7 2
295 7 9
291 10 15
271 1 5
212 3 13
139 16 19
404 15 12
35 7 15
344 11 15
472 1 3
321 12 11
499 13 14
89 2 22
451 5 7
480 1 2
288 7 20
132 11 19
67 11 0
376 7 7
411 1 11
447 9 1
131 6 1
388 12 20
491 4 4
39 8 20
272 8 20
114 4 15
265 12 23
440 15 16
492 10 28
99 8 10
200 14 15
396 9 3
438 0 7
477 0 26
214 5 28
330 9 23
185 9 15
141 16 5
92 7 5
262 6 26
438 7 19
218 0 23
332 15 28
18 2 14
200 11 23
214 11 26
263 8 1
166 0 22
61 13 5
346 3 13
426 14 0
247 8 15
405 13 10
201 7 20
301 6 3
9 15 4
441 1 2
462 15 1
125 12 3
450 0 14
111 11 16
97 5 9
141 4 18
120 13 24
14 14 7
18 5 4
254 4 18
261 1 3
172 1 17
335 2 15
206 15 19
464 6 22
7 2 23
471 15 26
485 10 28
180 10 15
115 1 25
19 15 26
324 7 6
15 7 7
459 12 0
345 2 25
273 15 9
394 16 10
301 12 2
71 14 27
429 16 5
278 13 12
271 7 2
203 2 20
72 4 11
255 3 15
116 13 25
274 5 9
40 9 11
467 3 27
293 5 0
22 11 25
331 14 9
412 16 2
198 2 1
228 0 24
28 16 23
348 12 6
436 7 17
476 9 22
274 11 17
102 14 14
186 2 7
213 15 3
156 12 22
228 10 21
313 9 14
124 14 6
458 16 25
98 4 5
15 14 6
449 10 5
406 13 1
104 15 21
426 14 4
3 13 3
114 0 10
309 2 16
222 14 23
276 1 3
87 6 11
472 6 13
365 15 7
132 10 15
269 0 15
41 16 24
306 12 9
229 14 21
218 14 24
286 4 4
49 2 16
419 15 28
151 2 15
411 4 0
101 5 14
24 4 7
201 8 0
76 6 2
1 12 16
471 6 7
371 10 12
416 1 8
188 2 3
450 16 13
272 0 27
226 11 5
144 4 12
318 7 9
391 1 7
165 8 13
338 7 2
166 7 28
227 12 9
398 1 19
138 5 22
34 3 16
271 6 19
260 4 4
487 8 2
409 5 4
442 14 9
128 11 9
244 15 24
276 14 15
195 9 6
337 4 23
240 16 28
97 7 23
160 5 8
61 13 16
215 14 7
217 2 19
283 1 21
260 10 11
407 1 10
352 14 27
71 11 11
355 7 19
230 7 12
392 12 22
179 13 1
478 15 8
67 4 3
421 3 28
166 5 16
233 3 8
344 7 8
450 12 12
428 8 14
30 9 11
174 5 10
4 1 1
377 6 9
201 5 7
487 0 27
311 3 24
124 11 17
211 5 19
182 10 21
490 3 27
492 7 20
409 5 22
472 10 18
228 16 1
348 10 23
393 10 28
204 10 22
99 14 1
359 14 10
181 1 26
61 11 7
260 2 13
383 13 8
6 1 3
210 16 5
430 8 26
366 6 15
192 1 9
34 8 17
143 15 14
209 11 21
165 3 14
248 11 9
414 3 20
204 14 6
307 6 10
314 7 0
77 9 26
284 9 9
466 15 14
197 9 20
175 5 14
411 10 10
73 9 18
108 0 19
412 16 1
105 3 22
430 6 27
56 3 14
298 1 10
196 15 6
370 9 12
84 1 15
244 16 20
42 3 5
106 12 4
261 2 8
498 6 5
46 12 13
215 5 1
77 13 14
414 16 0
468 1 10
329 15 27
32 6 14
203 7 16
116 13 22
225 11 25
334 14 17
416 8 1
157 12 21
136 7 7
253 0 14
39 14 0
393 4 5
233 8 11
279 4 13
214 13 5
472 11 26
336 11 25
387 10 27
219 7 19
153 2 18
66 4 19
317 9 10
456 7 11
329 4 19
240 10 18
411 4 5
342 3 0
185 13 13
472 10 4
166 14 22
103 7 9
442 12 12
41 16 24
297 13 20
100 2 8
309 14 5
212 16 24
224 11 26
461 7 1
356 14 21
357 7 0
14 6 13
382 15 24
169 3 0
295 4 16
461 13 2
119 6 27
255 11 17
429 14 24
63 3 20
298 7 28
306 15 22
386 10 22
347 8 10
297 13 23
48 11 4
467 8 25
45 14 10
96 6 7
17 9 18
357 1 16
312 7 9
89 2 17
250 6 5
166 4 23
260 12 25
495 8 21
491 11 0
499 12 3
231 0 15
130 12 7
128 0 25
367 6 23
338 13 22
418 13 25
228 1 17
392 6 1
450 1 16
152 2 22
137 11 10
377 11 17
399 11 21
134 1 15
242 12 4
428 11 24
332 3 20
457 15 20
139 7 23
453 0 9
244 5 5
306 9 14
37 9 24
491 1 19
346 7 26
292 7 2
396 13 0
427 0 4
81 5 11
447 0 27
376 1 7
297 2 11
174 12 18
135 10 11
351 12 10
3 13 27
278 6 11
276 13 23
319 16 14
384 8 3
364 1 2
374 13 2
188 16 27
202 7 12
153 5 6
490 4 21
53 2 19
262 4 20
2 8 2
415 14 8
170 16 13
460 0 11
284 1 18
432 7 27
496 15 27
221 2 1
421 0 12
170 0 23
263 4 10
393 2 17
365 6 22
174 3 6
185 14 6
290 2 6
441 4 25
472 2 16
38 11 2
208 3 17
83 5 0
498 10 0
445 8 8
356 10 8
140 10 19
389 8 6
360 12 3
275 1 3
28 12 16
294 4 4
340 12 17
439 16 1
153 0 18
439 5 6
346 13 13
356 5 20
137 7 17
349 15 19
403 6 18
123 3 20
9 10 21
217 0 26
119 4 27
488 16 18
166 16 25
61 15 0
149 16 18
141 9 27
491 13 14
431 5 13
334 15 14
22 2 5
198 11 1
42 14 17
371 15 9
121 0 12
36 0 15
338 12 15
486 16 24
320 15 5
175 1 15
136 2 19
212 5 18
483 4 12
156 1 2
86 1 16
3 0 26
109 11 25
469 12 18
346 16 8
25 3 13
496 7 25
404 11 22
471 15 12
116 14 13
486 6 5
479 11 22
157 12 28
5 6 19
488 14 22
354 5 4
88 1 5
16 14 21
89 3 2
261 6 22
277 6 10
117 2 27
218 3 21
129 11 22
400 9 7
284 6 7
412 13 17
187 16 1
273 10 7
286 9 25
397 4 5
450 12 18
203 11 28
110 15 15
287 15 18
143 2 2
125 13 6
386 5 28
368 2 6
218 16 10
6 9 10
287 0 26
14 11 23
247 10 23
174 0 28
499 3 23
447 5 20
128 7 3
309 4 6
495 4 18
155 16 25
107 8 3
488 1 20
461 8 8
413 15 23
319 1 16
295 2 16
354 11 17
479 2 27
105 4 10
124 0 5
185 7 22
159 14 13
44 10 28
425 10 11
268 1 17
62 14 22
216 15 3
302 10 15
269 3 14
493 16 19
384 8 14
435 2 18
48 8 9
49 15 19
358 3 18
489 10 3
384 9 28
110 0 17
483 8 2
248 6 17
314 3 15
67 16 2
267 15 25
374 3 26
440 0 12
199 4 13
322 3 3
282 4 20
178 4 7
298 15 11
413 10 0
272 4 24
42 14 4
224 11 9
18 4 12
177 4 8
213 9 5
206 6 5
441 2 17
410 15 0
215 12 9
353 16 15
157 7 2
413 7 3
198 16 26
419 6 11
144 7 4
141 0 20
420 12 15
45 12 2
160 7 8
349 2 21
149 16 14
272 13 11
466 9 16
49 16 23
349 4 9
293 9 25
179 16 16
158 1 21
122 7 20
0 7 21
43 14 22
464 16 25
497 14 9
24 3 16
22 12 21
171 13 18
312 9 24
94 5 23
266 0 4
392 4 5
21 11 18
153 4 10
110 1 1
130 7 19
420 14 1
307 0 10
383 12 14
337 7 3
377 0 2
297 0 20
469 1 16
346 15 17
308 6 7
320 3 16
125 2 13
38 11 0
239 6 25
141 5 17
249 10 4
259 16 22
434 4 20
65 12 7
369 6 19
114 6 3
197 8 25
467 11 24
277 14 3
410 8 22
65 13 24
200 10 20
335 9 7
108 5 7
244 2 13
327 5 3
137 0 11
318 9 3
278 7 5
243 6 10
299 16 3
444 10 4
32 13 21
387 4 22
289 13 4
260 2 12
235 7 3
363 12 11
359 10 18
283 16 23
420 1 22
416 7 13
210 9 2
460 15 23
246 13 28
328 3 24
214 1 0
296 6 18
299 16 24
438 1 20
73 2 12
186 5 15
105 3 4
103 2 26
485 13 1
331 0 1
197 15 20
36 14 2
455 1 2
247 11 6
219 12 27
112 5 26
60 6 19
495 2 18
168 9 28
314 9 12
74 12 24
402 15 3
3 8 1
155 0 22
480 9 25
139 7 7
460 11 20
16 16 18
64 7 18
177 1 24
71 11 15
472 13 0
343 3 10
250 7 17
465 10 20
299 1 11
273 15 27
79 4 5
199 1 7
480 13 20
251 11 14
247 6 7
452 4 7
167 15 23
96 2 4
225 16 18
74 13 4
150 5 27
282 14 3
188 16 20
79 13 20
52 12 19
343 13 27
374 8 26
319 4 20
48 13 21
495 13 23
376 16 0
184 1 3
65 6 17
129 0 1
364 3 23
306 8 12
35 1 23
468 7 16
381 14 15
367 10 5
387 3 3
306 0 14
460 0 13
245 16 10
113 7 8
362 1 8
459 7 3
339 4 22
332 11 7
417 8 16
102 0 2
56 5 18
443 8 3
22 7 19
382 15 17
64 3 3
53 8 9
188 6 10
63 13 14
24 13 9
0 12 8
106 14 20
175 7 13
176 11 14
416 4 7
47 6 17
12 5 16
231 13 26
402 0 25
246 1 20
255 5 0
184 9 15
17 13 23
176 3 11
486 7 17
274 15 8
384 2 1
243 16 27
480 8 20
444 4 26
372 12 17
94 7 11
264 15 3
262 14 15
430 3 17
286 16 24
103 6 25
431 8 25
245 3 0
272 14 10
148 13 1
91 6 22
69 8 16
209 7 22
135 0 22
277 9 3
146 8 20
278 13 15
154 14 0
8 12 9
315 2 12
280 12 5
105 4 27
102 13 9
481 12 9
453 11 16
107 1 5
452 1 14
274 13 11
14 1 20
240 0 19
112 6 4
353 14 14
121 9 19
138 15 10
169 15 27
401 9 4
24 8 10
41 4 5
495 6 0
31 0 5
326 2 24
97 5 5
125 13 18
413 15 22
399 0 23
266 16 21
86 5 6
61 5 13
103 10 6
361 11 25
183 6 6
364 7 7
118 7 17
327 14 9
316 16 15
44 0 6
281 10 8
57 7 10
74 2 4
371 6 23
490 4 15
84 8 13
447 4 26
69 0 23
316 12 12
189 15 8
140 11 8
497 1 2
130 9 7
48 5 12
82 12 0
293 15 5
153 15 4
165 16 27
365 16 2
293 9 7
461 2 14
495 9 25
459 3 23
191 2 9
124 8 27
242 0 27
183 11 5
491 9 21
251 14 25
482 13 13
29 12 16
453 0 1
373 12 15
365 14 17
72 0 27
360 15 25
182 3 8
267 12 5
309 3 13
38 11 21
315 14 22
422 1 11
419 2 28
212 13 9
447 4 23
140 13 22
21 8 17
388 9 2
126 7 6
399 5 26
183 4 27
72 4 9
380 4 7
160 7 11
12 14 26
295 10 13
262 5 0
446 7 27
320 6 2
490 7 23
119 16 4
293 7 22
451 13 4
427 4 0
10 7 18
343 11 28
7 15 8
29 6 7
295 9 12
462 7 20
317 16 28
7 5 25
75 1 22
379 14 3
134 6 19
391 6 9
259 1 16
1 11 14
152 13 2
150 7 25
188 13 12
133 15 0
82 5 18
213 13 12
335 13 7
15 2 6
116 12 12
357 12 9
259 2 24
162 16 12
287 16 24
7 12 0
105 3 26
148 12 28
301 16 13
164 11 8
47 15 15
98 0 26
76 6 6
268 13 20
231 0 10
254 11 13
346 15 14
448 15 3
372 16 17
145 5 23
293 16 2
230 13 6
298 15 9
474 7 2
323 9 28
390 12 9
353 13 21
490 2 21
200 3 8
282 16 4
198 1 12
228 9 28
401 13 1
87 13 20
178 2 21
117 16 3
160 15 14
39 9 13
38 7 23
101 7 25
303 2 1
338 4 22
407 0 19
21 16 9
107 7 11
69 3 1
86 2 1
142 9 22
32 1 28
62 6 18
305 16 8
339 12 23
291 8 3
277 11 18
241 3 4
69 7 8
387 0 8
394 9 1
204 15 15
384 2 25
306 3 18
447 7 0
39 7 14
380 9 0
256 6 13
425 4 21
401 14 3
76 5 14
399 6 7
435 7 24
193 2 22
367 13 16
191 4 23
99 9 8
85 5 28
295 7 15
61 4 3
24 10 3
152 9 12
40 6 15
265 16 9
274 5 0
291 16 1
124 14 12
403 6 23
431 3 21
209 12 12
460 7 0
207 8 13
428 8 13
395 4 23
15 1 24
304 16 2
475 3 22
123 2 26
466 5 10
327 12 6
33 14 25
132 14 11
346 2 2
345 7 15
394 10 11
288 1 2
326 11 9
208 5 3
74 16 11
143 2 27
391 4 12
33 7 10
327 3 26
416 10 1
277 7 11
196 11 5
235 3 2
68 15 28
199 14 24
288 13 10
444 16 11
269 14 22
483 0 11
155 4 5
230 4 24
152 12 1
376 1 11
228 8 18
237 16 3
410 7 26
397 16 22
16 7 21
302 11 26
392 0 26
270 16 11
225 16 22
470 10 28
489 9 7
24 12 18
102 9 19
368 11 15
218 6 14
69 3 5
249 14 20
275 16 14
61 14 9
93 6 18
231 15 7
326 1 2
195 1 8
302 2 9
486 14 1
417 2 28
435 4 0
142 3 21
107 11 19
19 0 8
268 14 5
244 16 23
247 0 27
205 10 27
54 7 15
497 15 18
487 13 10
350 16 28
27 8 4
231 14 22
145 11 17
64 11 28
405 3 28
168 2 4
131 1 16
59 10 28
14 12 6
379 14 17
68 11 12
265 0 0
463 11 9
144 13 10
38 16 1
151 1 15
51 14 4
212 12 27
423 4 9
306 6 11
163 3 9
100 14 17
450 5 13
486 15 20
109 16 22
190 10 20
162 4 9
452 16 3
406 6 15
2 10 3
157 9 6
20 5 14
200 7 15
153 0 19
96 0 24
433 7 12
93 5 9
132 12 22
60 3 9
205 7 23
305 10 0
160 13 22
484 8 9
297 8 17
198 6 0
1 10 8
37 12 26
43 10 7
334 13 22
245 13 25
404 15 24
415 14 7
358 5 2
188 7 20
79 12 13
303 11 25
110 1 23
72 12 9
407 2 21
152 16 19
11 3 12
66 13 2
203 1 15
383 9 6
395 5 15
496 5 9
452 8 11
182 2 26
54 7 15
452 1 16
160 4 23
339 11 26
439 0 14
38 5 11
122 4 28
470 9 17
32 6 1
148 11 25
412 10 6
61 7 14
63 13 11
258 2 2
120 2 8
403 4 17
367 12 0
399 15 28
394 8 2
116 16 9
276 12 24
35 14 5
48 0 22
83 7 19
111 1 16
254 3 1
62 8 6
236 13 7
416 15 18
261 13 2
468 2 9
270 7 16
232 12 6
328 3 23
214 11 8
470 7 1
329 13 19
431 12 15
239 1 14
487 4 9
429 14 25
481 3 8
100 9 3
489 8 19
80 14 5
145 13 18
143 7 16
278 14 5
484 16 0
392 16 16
305 6 28
48 1 14
185 7 25
18 8 11
286 6 17
122 4 6
143 15 27
46 12 8
425 3 5
102 6 0
389 16 9
489 0 4
283 1 23
6 9 2
20 11 5
127 16 1
9 15 13
86 14 22
464 7 2
44 5 19
227 8 20
152 14 7
49 0 18
314 6 9
297 5 19
340 0 20
42 2 13
341 3 14
428 16 19
400 5 6
449 1 8
487 1 23
230 2 8
198 4 17
481 4 15
244 1 13
452 5 4
249 8 17
236 11 13
336 8 22
243 7 5
232 15 8
258 10 2
256 16 20
420 1 5
52 4 24
254 5 14
375 12 26
342 11 11
149 9 14
398 1 24
371 0 24
109 7 1
370 8 25
245 1 10
373 10 17
459 15 26
351 10 20
431 3 13
319 4 15
315 11 23
482 15 18
446 9 9
172 2 7
93 12 15
143 4 21
382 16 25
228 13 9
11 0 25
44 15 3
220 4 19
432 11 3
224 13 26
101 4 4
289 2 13
182 13 25
283 15 27
420 13 20
217 0 15
268 9 9
16 9 14
99 2 13
259 11 14
197 15 13
42 0 17
149 5 24
68 1 21
297 7 10
298 2 18
489 16 6
48 9 12
92 2 17
23 6 6
86 6 22
104 4 24
95 13 18
328 1 16
435 13 22
175 0 13
273 14 11
62 1 28
192 9 3
115 9 27
57 10 20
334 11 26
413 11 28
68 0 28
423 4 23
160 16 21
474 15 3
136 13 25
160 3 11
343 4 19
351 14 20
245 12 5
94 12 12
316 13 1
95 10 21
262 3 8
141 8 15
283 5 17
443 1 1
13 1 20
209 10 16
157 14 11
129 0 19
498 10 25
72 4 27
375 2 21
105 5 11
216 12 13
472 5 16
336 9 6
475 7 2
140 4 12
347 14 17
298 15 18
98 8 15
1 15 5
175 8 13
219 10 7
431 14 4
183 15 13
74 15 11
143 12 2
299 12 3
121 11 14
424 5 2
352 10 22
421 10 10
267 7 8
374 10 23
143 6 14
132 6 9
267 14 17
263 9 4
203 7 25
376 10 27
149 7 18
79 9 7
182 2 19
158 15 6
434 14 14
205 0 3
195 9 1
280 6 16
207 3 0
352 15 17
97 14 12
312 7 25
314 13 19
172 15 26
16 0 13
358 8 11
476 3 11
195 11 25
244 12 11
311 11 11
227 7 16
338 5 6
205 11 22
436 7 16
220 12 20
377 11 16
362 12 24
201 6 15
72 0 12
382 8 3
30 10 12
447 8 20
23 16 19
260 1 0
207 2 13
75 10 16
326 1 19
144 15 25
137 12 14
93 9 5
424 0 9
37 11 3
470 11 14
439 8 11
54 10 0
189 7 1
485 2 11
173 2 2
79 15 3
372 2 14
480 5 18
234 3 1
469 11 2
276 2 2
64 7 20
55 8 6
450 1 11
447 15 25
185 9 0
21 14 14
10 1 15
235 4 3
392 7 25
310 8 21
29 16 23
420 2 21
413 9 16
318 2 18
460 12 18
248 11 0
290 16 8
5 14 17
96 8 24
280 16 11
415 14 28
86 14 24
88 14 23
39 4 22
445 14 6
148 10 28
1 12 7
117 10 6
196 9 4
389 10 14
327 15 5
468 5 11
249 13 23
291 16 9
485 5 26
295 6 15
113 6 11
190 0 10
483 12 7
30 15 23
423 14 6
287 14 8
26 11 2
30 9 5
272 10 23
320 15 13
475 12 18
266 15 7
417 10 23
205 6 17
221 2 21
373 14 6
188 10 25
91 16 6
103 13 19
74 0 0
98 12 7
405 4 12
195 15 24
109 15 4
241 9 22
75 2 27
349 2 16
430 1 9
213 13 1
262 2 26
45 4 15
45 10 27
405 8 3
32 2 16
214 12 28
12 3 21
140 12 18
51 8 10
314 11 24
223 12 10
264 13 13
494 3 27
80 15 8
235 2 20
412 2 28
485 2 1
492 10 28
24 10 7
300 12 2
16 10 26
106 5 6
185 14 14
27 4 28
417 15 11
60 16 0
188 9 16
474 8 20
69 9 10
153 4 11
471 11 12
43 0 28
185 5 5
48 12 11
237 0 10
78 11 9
97 15 27
245 3 3
469 16 12
446 11 12
126 14 9
139 0 19
299 13 11
377 9 4
230 0 21
54 9 24
481 12 27
303 7 15
240 3 26
301 5 8
353 7 21
24 8 11
151 13 19
427 4 3
303 1 0
201 12 28
10 16 10
441 0 8
361 13 0
262 11 14
122 10 17
430 13 12
187 2 23
458 4 22
379 15 9
105 8 9
321 4 18
407 3 0
163 3 15
439 5 2
224 12 12
122 3 27
389 11 8
195 6 12
220 8 19
106 8 25
391 3 10
246 15 28
122 16 1
251 14 18
464 11 3
231 13 3
395 15 19
387 13 14
10 14 13
212 12 1
396 10 8
468 4 0
359 5 12
128 9 12
296 7 6
480 9 2
462 10 11
439 14 25
462 9 28
309 10 8
266 2 18
24 4 27
166 3 11
423 2 0
235 3 25
480 10 6
141 1 4
336 8 23
67 8 25
119 10 7
113 4 22
454 5 1
321 3 4
76 12 28
61 0 14
48 13 8
254 10 24
62 7 21
98 10 22
176 3 27
336 4 21
431 16 19
473 9 28
63 14 28
495 6 8
356 10 10
328 15 3
9 7 26
295 13 5
10 8 13
472 11 25
81 10 0
368 6 13
308 11 19
52 11 25
418 0 3
42 5 19
371 13 1
124 6 27
136 12 20
240 2 7
494 5 14
267 1 13
433 11 14
337 6 7
34 9 17
492 16 6
121 4 0
308 2 4
270 11 5
325 4 10
436 13 6
98 14 2
373 10 18
81 9 21
99 3 26
296 0 4
306 10 13
453 6 24
239 16 18
303 1 10
42 4 14
180 4 28
392 1 3
309 0 9
154 5 19
174 14 2
440 15 0
42 4 2
437 9 28
114 16 6
455 14 15
337 1 8
347 4 25
138 11 21
61 7 11
235 13 21
181 9 1
399 13 17
29 7 28
426 6 11
25 13 7
354 13 17
468 1 19
491 12 17
146 5 21
307 10 2
76 16 26
495 13 25
103 6 5
334 8 20
68 11 13
143 2 1
7 8 20
338 0 3
492 1 8
314 8 20
457 12 22
142 14 22
294 7 5
419 0 15
322 2 14
92 15 8
107 10 5
142 3 7
152 15 7
344 4 23
365 8 9
285 4 11
146 13 5
53 4 15
464 14 1
10 7 23
194 2 13
374 3 7
332 6 15
438 3 17
180 0 18
277 2 17
374 10 10
174 9 24
318 5 10
296 11 7
402 4 24
450 9 7
445 4 11
489 9 18
264 1 27
212 1 7
305 7 22
477 1 7
44 16 3
82 12 21
490 12 1
79 8 9
290 11 25
288 1 5
329 0 25
169 15 0
379 13 8
237 8 24
132 13 7
16 3 8
249 6 20
63 9 24
338 14 4
493 12 24
346 9 28
86 15 22
226 14 2
155 14 21
259 6 20
267 14 1
469 2 2
329 16 7
154 8 23
337 8 23
468 5 11
461 2 8
224 14 5
430 4 17
481 16 1
117 0 20
13 4 3
168 16 24
227 13 5
133 7 17
84 6 23
260 10 15
240 15 4
58 2 28
146 7 18
315 12 17
408 15 2
137 2 19
343 3 0
188 13 27
214 3 12
227 10 16
85 14 28
311 12 3
352 1 25
144 15 26
376 6 13
62 10 0
15 2 19
87 0 17
245 4 16
390 15 10
256 0 28
376 3 10
21 9 19
499 8 16
466 11 23
413 5 26
278 13 12
41 8 6
137 0 11
353 14 7
453 0 13
396 5 11
196 3 23
123 3 14
216 7 2
219 2 0
318 3 0
57 11 24
335 14 23
93 7 19
273 5 2
11 6 10
384 5 13
214 13 27
450 5 20
489 14 15
254 7 13
195 6 27
366 0 21
388 3 14
104 6 24
175 11 10
62 9 1
141 15 14
436 10 20
51 2 28
433 15 2
131 13 10
178 8 4
291 5 18
147 6 5
376 4 11
242 12 9
384 4 14
451 2 24
140 16 15
146 2 24
129 12 4
273 7 25
203 3 13
449 3 12
85 10 20
163 4 21
192 10 22
332 7 7
124 8 27
230 3 13
469 12 27
308 7 14
157 2 14
372 16 4
213 5 6
169 14 22
232 4 3
208 13 26
456 6 25
384 13 8
319 12 21
253 1 17
449 4 8
308 0 8
234 11 4
2 13 4
378 8 3
180 6 3
264 14 1
205 6 13
46 16 9
3 12 11
197 0 1
255 16 1
292 16 19
40 7 27
73 9 20
226 2 23
31 0 4
278 6 1
95 9 2
224 12 25
406 12 12
331 14 17
288 7 0
332 7 0
210 0 11
383 14 23
79 0 22
86 4 13
306 10 2
412 3 0
139 12 25
491 6 25
462 15 17
21 8 21
413 2 6
269 11 24
75 14 12
380 11 19
428 3 27
103 15 7
444 5 8
360 9 20
56 9 12
316 1 11
331 4 1
97 1 1
68 8 13
1 16 12
203 7 14
331 13 11
409 13 20
282 1 22
161 11 7
2 2 27
280 5 9
489 10 22
187 10 21
200 6 23
211 16 8
159 2 1
468 8 3
200 3 3
447 10 13
408 1 5
176 13 26
426 11 7
98 10 14
334 8 22
222 0 7
334 3 28
119 14 14
237 5 28
103 15 28
298 2 2
313 7 28
80 9 9
116 1 18
241 15 0
182 12 25
220 10 15
298 0 17
353 16 24
73 9 11
77 8 0
131 11 16
381 8 22
178 6 25
30 16 1
120 14 6
79 13 2
97 15 13
459 9 18
6 14 15
60 11 15
280 14 19
459 6 15
12 6 16
393 13 15
285 2 2
403 15 17
110 0 17
421 7 2
432 14 23
142 9 19
454 1 7
407 15 6
51 12 3
240 16 21
231 6 24
226 2 24
130 8 25
313 0 20
319 13 22
468 12 20
322 4 5
100 10 12
256 3 17
413 1 17
377 10 21
90 8 23
146 5 28
488 6 6
186 9 25
91 0 17
275 3 7
439 9 21
280 0 19
295 6 22
307 0 16
48 13 3
196 0 10
5 14 27
74 6 8
401 8 9
312 14 10
299 2 18
91 15 2
283 9 6
331 2 4
59 9 1
49 1 18
440 4 2
226 1 13
402 1 14
184 2 7
56 9 7
117 10 9
164 1 26
12 2 11
423 11 26
124 12 14
248 9 6
68 1 12
404 7 9
402 2 0
228 15 24
418 4 20
414 5 27
187 10 25
264 3 14
310 8 19
275 2 14
281 15 0
486 6 10
485 14 4
416 8 0
60 16 9
135 14 13
273 3 21
31 11 17
190 1 5
371 4 6
233 15 12
402 1 1
388 12 23
307 10 1
225 7 23
254 6 18
146 10 14
402 16 9
415 14 0
122 0 14
17 13 9
27 0 22
352 0 3
311 8 22
144 15 3
113 6 25
366 6 21
198 12 27
343 4 17
406 14 28
184 7 8
215 14 0
216 12 3
15 13 16
254 12 0
493 5 22
322 12 12
21 2 28
426 3 17
265 0 6
143 16 3
80 14 20
236 8 0
264 13 16
135 13 0
43 6 10
187 5 28
459 14 26
322 9 17
265 5 15
21 15 14
100 11 4
8 6 0
397 3 4
128 8 23
198 1 12
289 11 8
61 1 18
342 15 18
133 13 6
194 7 9
460 5 11
8 13 15
269 9 25
403 9 1
79 11 4
330 10 17
39 10 5
101 5 28
276 11 9
134 0 9
104 8 9
179 11 21
161 9 13
297 6 19
314 14 5
86 10 11
319 1 5
229 8 28
324 1 0
286 16 28
28 9 14
424 7 23
334 0 26
398 12 25
274 16 11
192 10 13
67 14 15
192 2 14
457 9 17
356 1 6
198 16 24
286 13 18
357 10 16
272 10 8
95 8 7
471 14 13
487 11 23
202 9 16
346 0 4
250 6 24
161 14 25
152 4 20
176 15 18
266 1 19
158 9 27
447 0 5
468 0 1
463 8 7
40 7 28
427 14 23
260 14 21
406 10 5
285 4 3
257 15 24
180 4 25
341 7 24
17 7 21
1 1 7
424 7 18
182 12 13
256 16 21
206 1 20
1 15 14
265 15 4
225 10 4
384 0 1
106 6 3
276 4 13
367 11 6
399 15 17
89 13 16
471 1 14
385 4 6
393 2 22
118 5 4
346 12 8
186 10 6
4 11 21
277 8 28
91 14 0
307 0 1
266 5 2
437 7 23
276 11 6
448 2 10
193 3 14
380 6 11
340 11 11
431 5 20
178 4 18
284 10 22
67 10 22
482 3 17
482 14 20
285 12 18
380 6 15
387 3 16
162 7 3
478 11 10
399 13 8
169 15 3
486 7 8
324 4 16
322 2 28
99 2 9
437 10 22
74 12 10
340 15 24
431 2 23
77 10 27
427 12 12
392 16 5
416 7 12
151 1 3
282 13 23
215 5 9
253 2 5
443 7 16
57 5 22
253 2 18
268 12 2
11 1 2
170 5 9
129 13 24
232 14 6
60 4 11
426 13 7
484 15 17
362 1 27
340 4 10
140 2 24
150 9 21
162 9 5
71 6 4
490 5 10
210 12 25
404 0 10
29 5 3
194 6 1
145 13 12
149 6 19
62 14 28
232 8 13
395 5 9
357 3 26
395 8 28
480 6 8
271 3 1
253 9 16
257 5 24
216 12 19
289 1 6
223 5 27
449 4 13
112 6 1
128 15 26
170 1 2
108 3 9
431 12 28
27 0 5
363 2 7
68 2 15
281 8 6
63 2 22
436 3 5
297 5 21
411 14 10
392 8 11
343 0 20
76 6 14
139 6 13
132 2 28
165 3 11
146 7 9
144 15 23
226 4 2
317 15 1
230 14 13
473 2 16
217 4 11
324 10 13
426 15 1
247 1 21
5 2 10
439 1 16
107 0 22
149 14 4
301 8 1
34 1 8
81 4 16
441 11 4
64 8 7
299 16 5
406 13 25
348 11 2
401 3 20
400 9 24
350 3 14
292 10 1
480 13 8
404 11 3
150 11 20
77 1 6
153 11 5
375 2 2
304 3 0
243 7 24
116 4 6
178 14 6
300 14 28
462 14 27
53 8 16
161 16 25
278 9 25
422 12 23
315 11 24
1 9 17
265 4 4
327 14 4
360 14 5
130 6 12
224 0 16
231 16 19
249 16 24
275 6 5
331 1 15
46 6 26
152 14 6
284 9 26
453 7 23
221 16 3
436 4 27
22 14 16
487 10 23
181 14 9
33 11 18
247 10 7
299 16 15
247 14 17
396 11 13
16 8 13
162 1 19
406 11 17
6 6 5
279 6 25
181 1 28
395 15 26
480 5 3
442 9 24
364 10 0
200 8 1
496 15 28
334 6 15
70 0 7
206 4 3
341 1 28
90 14 14
233 1 6
336 15 0
30 4 10
141 6 5
367 11 1
169 7 10
73 4 8
77 1 7
486 7 1
135 2 4
75 6 19
317 8 1
186 5 21
1 4 19
498 0 22
104 3 20
289 7 12
19 5 17
29 9 3
13 14 14
42 11 27
203 10 3
114 6 2
240 11 13
14 3 27
330 0 4
373 9 1
94 4 7
443 9 2
406 10 21
196 10 26
239 1 4
416 15 12
438 1 20
477 16 11
340 4 14
395 1 16
490 0 19
56 7 22
394 2 21
212 14 25
130 8 15
58 11 16
192 8 1
307 15 1
487 1 10
457 13 2
409 4 15
67 15 24
277 4 24
302 15 18
21 9 22
306 15 8
268 9 20
184 10 10
316 9 23
483 14 23
287 14 5
136 4 22
426 13 19
453 14 23
4 5 10
276 4 23
413 8 24
99 15 8
332 4 2
161 14 28
72 14 17
375 4 16
421 12 6
402 3 15
243 8 20
393 4 28
364 8 18
239 3 10
51 1 11
292 1 8
320 1 18
407 6 12
95 15 9
297 11 3
412 6 6
230 11 7
278 14 22
458 13 14
391 9 1
8 7 28
39 11 15
208 1 15
147 3 8
402 6 8
419 7 13
3 0 23
304 2 14
142 13 2
497 11 4
414 9 20
251 7 5
478 16 2
349 13 9
189 0 9
80 8 4
479 5 6
340 13 6
421 11 4
44 15 28
349 8 25
140 5 21
63 3 20
244 6 0
88 6 26
19 6 8
193 15 7
411 4 12
448 4 26
80 6 16
22 11 2
259 16 21
253 8 21
222 12 15
288 0 11
497 12 28
269 16 21
231 7 21
282 3 22
244 16 8
456 16 2
71 16 10
407 6 6
190 2 28
46 10 2
4 0 16
255 13 0
471 14 24
7 1 1
346 5 18
353 14 14
384 6 16
99 12 25
278 0 7
329 8 0
139 6 21
337 3 22
235 14 10
384 2 27
24 14 2
315 7 24
46 15 7
62 5 11
440 2 12
441 4 24
123 15 0
485 6 22
429 15 4
307 15 26
90 11 6
269 4 27
395 4 15
484 8 9
413 13 14
39 2 4
399 10 6
216 7 15
187 13 3
29 3 22
478 6 24
58 5 25
367 13 12
407 1 7
105 14 21
172 15 25
354 12 16
89 0 12
18 13 19
95 8 7
491 5 4
411 13 16
255 0 20
415 3 16
113 8 0
180 14 22
387 3 28
444 8 4
448 15 12
227 9 8
44 6 3
66 14 14
294 13 0
233 15 28
460 9 17
92 3 10
493 7 12
185 12 12
389 7 19
60 4 13
372 6 26
9 5 18
369 4 21
53 8 1
454 5 13
470 6 27
438 3 7
233 12 6
326 9 26
130 15 15
25 11 8
405 11 21
233 16 5
232 10 4
367 15 19
63 12 27
37 3 26
16 13 17
432 2 8
485 10 4
344 13 14
106 11 21
451 14 15
72 0 2
213 1 26
230 16 27
275 15 17
248 15 24
478 5 21
134 1 22
425 0 25
380 3 2
352 6 23
231 11 19
295 12 10
269 6 16
105 7 25
89 4 4
120 7 5
419 11 2
224 8 27
29 15 13
438 9 20
409 7 17
99 14 20
217 7 15
381 5 9
297 9 6
397 9 2
251 1 1
294 13 15
140 7 23
407 3 4
377 4 5
266 1 14
326 12 28
286 9 0
106 0 12
310 10 6
21 6 13
231 9 22
87 7 15
34 2 10
203 12 3
239 8 20
268 2 24
289 11 17
330 5 28
261 5 27
476 1 24
397 11 3
345 2 14
146 3 27
152 14 21
167 0 20
353 4 12
425 13 18
152 3 4
75 13 23
382 8 27
91 2 22
104 1 11
72 12 26
336 6 21
175 2 19
460 13 23
115 0 13
307 13 10
23 16 4
498 7 13
166 5 23
83 8 1
308 7 18
161 1 23
496 6 13
284 8 12
467 11 15
236 16 3
268 15 15
214 6 12
311 6 10
9 10 0
22 0 27
104 2 9
263 15 17
153 7 10
256 2 20
84 12 21
240 14 22
234 1 7
487 3 5
312 10 26
338 12 2
334 8 23
249 7 23
351 6 3
136 0 15
437 2 2
128 9 8
471 16 7
2 12 15
329 11 14
78 0 10
205 2 13
464 1 7
388 6 11
352 10 13
102 6 9
289 2 6
287 13 11
31 0 11
251 13 17
86 10 28
227 8 28
255 12 26
264 6 6
315 11 6
477 4 22
380 7 22
50 9 6
269 13 17
77 5 20
410 2 13
304 3 10
176 6 6
237 6 11
190 2 22
314 14 18
218 14 16
57 15 17
446 12 6
248 9 14
376 16 26
314 16 14
414 16 13
261 1 19
145 9 7
213 16 23
402 8 15
364 10 12
280 4 21
112 11 14
260 9 14
120 10 23
366 6 28
336 14 6
366 1 23
370 9 19
112 4 15
356 11 25
348 8 17
300 4 17
434 9 13
207 4 2
396 13 13
304 13 23
466 4 12
152 3 5
144 16 13
208 12 20
298 0 21
232 6 5
216 10 26
47 15 20
363 7 15
453 7 21
173 14 12
228 5 20
494 0 1
494 8 6
199 5 20
5 10 18
335 8 0
443 0 7
19 11 9
356 4 26
373 9 22
204 8 12
132 9 19
444 15 0
34 0 23
313 1 0
103 6 14
487 8 21
351 14 10
66 8 21
256 14 26
485 4 2
385 14 26
452 16 8
242 14 20
365 7 4
197 4 12
36 7 27
95 8 10
254 16 12
255 13 7
40 3 4
489 10 3
183 11 19
352 6 24
4 15 15
60 11 27
184 3 7
166 13 2
51 12 11
256 9 15
341 11 9
277 8 2
364 15 14
337 9 27
483 10 11
34 3 25
159 12 28
219 8 14
364 16 15
330 8 3
8 11 17
57 10 13
244 12 10
435 12 26
53 13 18
498 10 12
471 0 14
181 16 4
211 9 1
245 8 1
229 7 27
414 3 10
154 2 28
128 7 3
304 0 21
252 10 16
430 2 10
54 0 1
289 4 23
311 16 26
243 16 18
302 1 25
310 5 2
191 15 22
13 2 14
272 10 15
462 9 23
131 9 0
493 12 0
403 8 3
284 5 26
379 1 9
303 9 12
124 16 19
207 10 5
435 12 19
408 6 4
309 13 20
60 14 23
462 15 21
159 15 28
338 0 20
310 13 12
269 10 18
165 1 27
489 1 16
371 6 5
422 12 28
374 5 0
11 4 22
433 2 8
123 4 15
369 6 18
370 16 8
351 4 23
175 0 4
12 16 20
239 6 19
333 5 2
418 11 3
206 1 26
495 7 20
204 4 28
199 6 10
135 3 17
40 6 25
226 8 9
25 15 13
10 14 22
454 14 23
22 1 20
197 2 10
448 5 10
53 7 17
311 6 24
324 11 13
233 12 6
102 6 10
268 11 10
288 8 14
351 13 13
19 14 20
455 5 25
279 1 27
315 15 0
55 15 22
403 15 18
233 9 19
385 11 20
46 10 0
23 5 23
56 12 13
474 13 21
468 11 3
182 7 25
188 14 8
99 11 7
148 15 13
378 4 28
168 8 17
391 10 8
96 16 2
95 1 11
488 7 9
312 4 2
77 5 7
25 3 0
151 12 19
304 11 14
133 11 26
476 13 20
470 13 11
290 15 13
423 15 9
422 9 5
275 16 6
8 15 9
337 4 15
255 6 10
316 9 2
322 6 2
7 0 18
437 12 14
278 13 28
267 8 5
428 14 27
376 11 21
438 1 0
207 2 5
45 2 17
468 2 18
142 14 11
122 8 14
280 5 1
371 16 19
383 13 8
145 13 3
103 3 21
218 0 15
391 14 18
116 7 24
379 9 9
81 13 19
282 6 20
34 3 12
325 0 2
127 0 3
426 12 11
413 4 3
77 4 27
49 3 8
319 11 12
176 12 24
446 8 25
455 8 13
386 6 28
339 16 8
114 1 8
48 9 27
237 11 5
386 1 26
89 4 10
27 8 2
51 12 3
313 12 5
434 12 10
291 5 27
376 14 3
8 10 23
336 12 10
135 8 25
258 12 7
194 6 23
269 15 11
271 10 26
236 16 4
341 7 13
86 9 5
90 15 24
369 5 17
36 2 24
19 16 12
278 6 9
82 15 26
463 16 1
196 16 18
435 5 22
254 15 11
237 14 16
397 9 0
61 15 23
69 16 5
473 16 19
394 0 21
315 2 14
315 14 3
112 15 0
368 15 22
149 1 3
403 10 0
125 1 16
484 10 25
497 15 10
34 15 26
355 14 10
367 16 13
331 5 0
37 5 10
382 8 11
325 2 25
57 14 0
61 0 25
418 16 26
291 5 18
287 9 0
392 12 4
366 1 28
95 7 2
212 10 11
324 7 18
295 8 0
281 1 16
377 8 23
112 7 6
223 7 10
333 13 17
313 16 9
176 6 22
208 0 18
278 9 8
92 16 21
350 8 12
384 4 1
267 11 14
0 5 1
73 8 16
201 15 0
368 6 18
154 14 21
87 16 16
242 3 21
418 5 5
0 12 12
279 2 10
143 14 20
404 16 8
272 12 10
480 2 28
229 10 6
489 0 24
95 12 3
110 12 17
137 5 1
403 9 1
63 2 13
239 7 6
303 5 18
35 9 20
235 4 11
198 8 12
327 9 19
238 15 26
117 0 27
44 7 28
338 13 4
409 13 20
319 10 27
298 5 16
126 11 18
101 16 14
229 5 26
482 9 26
422 14 21
499 16 2
119 10 10
122 5 3
333 0 17
249 9 8
282 10 0
21 7 11
62 13 12
235 15 25
372 8 16
195 4 22
175 10 16
33 6 6
285 9 10
21 4 26
295 9 23
389 12 19
18 7 23
262 10 14
237 3 20
209 4 26
71 14 10
261 14 20
203 15 27
145 15 14
104 7 22
204 16 27
311 0 16
26 1 11
150 12 12
13 11 4
334 9 9
459 11 11
340 15 10
5 5 11
148 4 24
102 7 20
216 4 6
139 9 23
38 7 16
194 4 16
306 14 4
234 2 1
111 7 25
73 2 12
312 9 5
220 2 21
195 4 27
40 7 3
325 6 0
71 8 9
242 2 5
31 10 17
156 9 8
219 7 22
359 10 19
217 2 4
483 3 4
355 13 3
230 15 19
238 3 8
111 3 6
168 12 27
308 13 3
449 9 25
315 5 6
168 3 6
288 12 19
123 13 19
324 4 23
400 12 22
495 2 20
237 9 20
139 3 4
452 4 27
436 14 23
60 13 21
15 1 20
299 7 28
411 9 21
393 6 11
47 0 24
150 15 9
186 0 17
432 15 14
423 13 16
83 10 21
351 7 23
372 9 11
58 1 15
385 10 2
141 0 5
464 4 22
408 13 10
130 3 20
83 2 14
376 4 4
423 10 6
169 2 25
492 14 8
352 11 14
210 15 3
318 12 6
434 16 6
242 1 12
86 14 19
142 3 12
429 14 16
162 12 23
365 14 21
410 3 16
269 15 18
108 11 24
301 12 10
340 16 28
453 12 12
17 14 6
276 12 17
464 16 9
387 9 1
370 5 9
410 15 3
499 3 9
93 15 24
63 7 2
438 9 28
275 8 13
317 3 12
406 2 20
270 2 24
387 10 14
37 9 24
213 15 19
327 12 3
348 13 8
20 12 18
95 6 9
341 15 17
171 4 1
160 2 25
179 9 26
435 12 6
405 10 10
5 13 22
105 4 20
432 16 0
307 15 20
465 11 27
278 14 17
469 1 12
417 13 15
341 15 7
474 12 14
96 7 1
472 16 24
427 2 23
28 6 2
201 11 8
178 16 6
78 14 21
461 0 28
187 4 27
21 2 7
241 3 11
14 4 23
482 16 9
396 8 9
84 14 18
190 0 8
75 2 20
472 7 21
487 8 24
45 4 0
400 11 3
329 12 24
273 13 1
61 8 2
10 11 16
34 3 27
185 8 15
88 7 14
108 16 16
443 11 19
248 15 15
457 2 21
148 2 6
150 15 5
268 2 19
484 14 7
297 4 16
106 16 17
352 0 23
223 5 8
234 11 21
89 9 12
460 6 1
444 4 16
331 5 25
309 0 2
119 6 6
428 9 20
433 3 16
53 5 2
56 8 3
327 0 20
37 9 15
424 9 8
136 13 27
410 6 27
331 15 4
326 9 5
111 7 13
203 11 28
154 3 5
489 11 9
309 12 5
100 0 9
77 4 10
449 13 11
33 1 16
189 1 24
429 7 4
23 11 0
35 15 23
130 1 22
195 6 20
433 16 6
89 4 22
75 3 26
384 16 13
381 14 12
283 16 14
220 14 7
39 7 17
489 6 3
304 10 21
225 10 5
224 3 18
126 3 24
77 10 22
346 6 5
419 0 5
307 12 27
284 16 28
262 9 7
413 14 0
444 6 8
390 1 18
192 14 28
370 12 1
355 3 0
429 5 0
35 11 16
400 6 14
89 6 20
441 10 18
380 14 16
82 10 19
211 8 26
61 4 16
364 5 23
0 11 10
351 1 17
398 1 23
483 9 2
493 15 0
426 10 12
456 4 5
71 15 10
440 9 17
66 8 7
489 6 12
319 11 16
25 10 11
424 16 19
283 16 6
287 0 19
49 12 11
147 12 18
19 8 19
28 3 20
488 5 19
425 4 4
450 13 28
44 7 25
115 4 3
157 3 18
295 10 23
425 14 16
134 15 24
404 10 20
350 3 8
148 9 12
392 11 12
404 3 2
449 10 20
140 11 19
370 9 25
81 15 2
26 11 13
330 2 20
266 11 21
71 5 6
179 5 17
37 0 22
124 10 25
440 6 27
226 13 10
182 12 19
73 2 5
379 3 21
390 15 2
413 12 28
372 9 13
284 15 9
379 8 25
374 9 25
82 5 17
277 4 15
237 6 16
479 13 20
316 16 20
312 16 26
469 7 24
149 12 2
124 12 1
169 0 16
87 3 27
127 0 27
224 0 2
241 12 20
317 16 28
100 16 10
385 5 13
164 10 0
371 12 19
467 10 10
420 2 1
443 9 8
268 2 13
236 1 27
350 13 25
367 12 6
358 1 1
158 3 18
437 11 14
130 11 20
290 5 18
314 9 7
409 12 18
194 11 24
322 11 26
12 0 20
319 16 2
57 6 24
469 8 0
469 10 6
110 2 7
221 0 2
125 2 13
382 13 4
84 12 10
262 4 9
422 5 16
112 6 4
81 10 6
62 2 22
200 2 19
332 7 22
343 11 18
338 2 6
107 0 17
117 9 5
97 16 14
285 10 27
445 5 25
83 7 27
77 14 17
231 15 25
43 15 17
286 5 12
306 12 28
349 8 26
18 3 14
251 7 5
60 1 3
80 14 22
439 7 16
97 10 11
118 11 18
80 16 26
42 5 11
356 16 0
455 14 7
74 7 19
222 8 16
230 8 14
241 7 16
179 10 13
218 3 11
114 13 10
50 14 19
351 1 9
476 16 22
380 3 9
379 8 18
250 11 2
337 11 0
16 6 13
160 13 16
425 10 28
292 0 16
345 16 9
84 9 12
376 10 20
207 0 19
183 8 21
186 15 7
142 11 1
11 12 7
400 1 10
264 10 10
213 2 15
480 4 3
3 13 16
321 6 3
173 13 23
387 8 22
449 0 13
351 14 2
121 14 19
387 9 8
52 13 8
422 11 17
29 6 6
151 14 25
459 16 11
117 11 16
325 2 1
382 10 5
291 15 7
33 1 24
118 7 19
474 2 22
179 1 17
157 7 26
107 16 1
186 1 15
50 5 21
66 5 10
326 4 1
351 2 21
132 2 27
20 13 3
30 5 23
245 3 6
289 9 8
140 16 4
128 11 12
378 15 10
399 14 21
0 15 14
194 5 25
87 4 15
145 0 22
69 5 4
240 6 13
443 15 25
175 13 17
80 5 0
20 13 13
93 9 10
252 2 20
16 2 25
291 14 3
319 11 26
108 6 16
39 10 12
68 8 13
165 12 24
354 7 14
299 7 16
32 5 2
168 14 19
428 14 5
206 10 8
387 11 22
307 15 12
185 9 0
348 1 11
77 2 20
442 7 1
343 2 20
379 8 16
395 14 6
111 5 0
146 11 21
328 5 9
170 10 20
205 13 16
227 3 7
392 13 9
287 12 10
149 4 16
250 3 17
411 0 23
490 16 0
346 15 5
86 1 3
347 8 0
480 1 9
269 4 3
353 3 7
209 9 8
484 10 15
208 8 17
305 14 6
496 14 21
87 14 21
301 15 21
171 3 28
357 0 21
229 13 10
118 9 28
174 10 10
279 13 5
420 14 20
165 14 8
70 7 4
260 5 15
327 12 16
329 9 24
201 12 23
25 16 13
27 10 26
390 6 5
143 5 4
491 11 19
336 9 15
362 0 4
200 12 24
298 5 24
261 6 20
37 4 13
66 5 2
346 5 10
225 3 22
257 0 2
164 15 8
413 15 27
375 15 8
25 4 8
235 1 24
56 14 23
363 2 15
232 10 21
421 1 8
96 13 6
156 15 1
369 4 20
187 11 21
156 8 13
39 10 19
244 10 10
63 11 25
305 4 27
83 8 16
322 0 21
299 13 25
9 11 9
18 2 11
462 3 25
167 0 26
213 6 2
21 4 13
421 5 24
266 2 28
488 12 26
117 6 7
140 14 16
289 7 25
335 10 27
444 7 10
441 12 13
372 11 16
310 3 5
328 4 28
399 15 9
244 13 23
323 10 21
190 8 20
259 0 4
26 5 7
30 16 5
454 7 21
420 12 26
164 1 5
409 7 25
247 15 3
114 0 26
90 15 24
194 7 12
294 16 24
32 5 26
341 3 5
11 0 2
70 6 5
288 4 23
487 12 23
140 13 9
345 10 10
220 11 16
346 12 15
488 8 11
432 7 28
177 12 24
86 11 18
461 12 4
45 0 27
25 11 7
436 4 23
57 4 22
301 0 27
282 12 11
373 15 5
126 6 0
42 7 10
365 2 4
236 0 19
365 0 25
252 13 15
100 15 19
400 3 9
250 2 15
495 16 17
247 5 5
205 12 4
215 10 5
409 6 8
418 0 18
18 8 10
30 1 13
411 9 16
401 12 11
384 16 27
451 6 13
421 5 17
22 4 6
386 14 23
327 12 27
3 15 5
304 15 13
424 7 24
497 16 15
464 14 23
303 2 23
272 6 1
411 9 19
90 4 8
127 9 19
395 2 9
53 14 5
279 10 3
278 11 3
118 2 2
360 13 27
22 12 27
70 15 4
377 5 27
450 9 25
237 15 27
8 11 10
407 10 7
118 3 10
140 1 7
124 8 13
335 16 28
156 11 28
440 0 25
431 0 15
293 16 8
204 4 14
262 2 27
219 10 11
266 8 4
442 13 7
351 6 1
98 2 13
25 8 6
81 8 4
208 7 7
291 13 2
139 3 9
205 8 20
454 3 11
308 1 17
142 6 7
181 16 23
344 11 19
254 12 20
109 3 8
441 2 19
446 7 1
165 6 18
461 12 1
86 3 14
176 3 28
371 16 1
14 9 17
385 6 8
462 14 20
24 6 0
333 15 19
363 2 18
455 11 0
41 10 24
154 0 14
295 14 6
328 14 7
357 13 5
192 6 25
58 10 24
325 0 26
485 5 25
349 8 28
403 13 22
349 16 4
18 10 19
378 9 11
349 4 4
3 11 0
339 6 3
281 13 18
15 14 4
126 9 8
412 9 25
243 1 6
344 3 17
484 4 4
161 6 12
118 6 27
271 16 10
405 12 8
82 2 1
41 12 26
51 0 2
280 1 20
332 10 3
412 13 12
58 6 25
455 7 21
187 3 13
92 16 6
491 7 10
192 2 2
371 15 16
289 6 20
83 3 11
479 11 15
396 2 0
239 7 12
474 15 22
110 10 24
158 4 5
412 14 0
102 0 1
61 12 2
188 11 6
76 10 1
30 12 22
349 11 8
54 9 22
228 13 9
300 6 19
135 13 2
53 16 6
458 6 10
495 4 8
10 14 23
442 4 0
498 2 0
335 7 20
489 7 15
105 13 14
299 8 6
255 16 22
377 0 13
155 12 16
106 15 4
30 14 4
307 10 22
96 7 18
147 15 18
145 14 9
346 14 12
328 11 5
148 8 2
231 2 3
230 5 20
342 6 12
38 11 22
6 10 13
376 2 27
148 8 6
307 2 2
309 2 9
459 14 23
47 2 8
135 1 24
394 16 15
486 14 20
10 1 20
2 8 0
333 5 5
383 16 15
46 15 6
147 0 23
451 4 10
273 4 24
78 5 7
330 0 28
383 1 3
239 5 15
438 13 19
30 14 20
427 15 8
462 9 18
260 14 21
273 3 6
34 10 6
307 12 2
140 7 0
466 4 15
363 13 10
490 9 17
80 13 28
200 7 24
487 4 0
133 1 12
340 8 9
129 16 12
427 0 28
121 15 5
464 8 26
148 12 25
359 2 1
283 1 10
356 3 6
226 0 23
407 12 23
90 10 0
422 10 0
373 7 3
130 0 2
127 2 20
401 2 12
324 3 22
360 9 28
282 10 23
150 15 1
199 12 10
245 16 7
163 5 0
262 13 6
456 15 8
417 9 16
438 0 24
27 4 0
138 10 6
373 3 0
358 0 6
371 9 13
7 5 19
249 3 18
395 8 18
22 13 19
290 0 16
322 3 28
32 15 10
297 7 24
387 10 26
179 1 2
358 16 22
9 16 2
30 13 16
112 2 8
271 8 10
134 0 15
476 1 8
462 2 14
197 8 24
486 14 19
476 3 3
198 10 5
363 4 28
300 8 27
361 15 28
211 9 13
286 13 5
203 4 11
231 7 2
359 1 3
277 14 19
242 8 3
342 8 14
489 14 6
363 12 26
190 2 18
417 15 23
235 10 20
169 6 20
43 7 1
235 9 19
47 4 15
429 7 27
198 1 22
479 7 13
22 8 18
411 10 26
444 12 19
437 11 4
226 12 23
170 8 3
45 8 18
281 16 21
331 0 5
166 15 7
262 11 23
290 14 9
15 8 24
420 5 6
364 6 3
474 7 12
189 7 22
483 1 17
220 0 27
216 16 8
256 2 12
147 7 12
263 11 22
151 3 26
207 12 5
426 7 8
186 5 18
135 1 18
19 6 22
475 7 10
388 1 5
282 10 2
405 12 16
237 14 1
308 1 23
167 2 17
125 2 20
234 9 14
389 11 14
429 13 4
182 13 9
30 7 26
70 12 4
113 1 1
324 9 19
47 6 16
302 11 1
244 0 9
457 6 27
10 10 1
238 11 20
217 4 19
133 2 19
440 4 3
327 4 16
246 1 23
455 14 8
231 1 22
227 1 27
210 0 2
331 16 22
487 8 25
17 7 16
381 6 26
154 13 2
383 4 20
363 11 4
135 14 8
106 16 23
493 5 12
375 1 5
365 14 24
390 5 25
106 14 20
58 3 28
456 9 19
362 0 11
195 14 23
351 11 3
301 7 0
109 6 6
341 16 9
390 8 12
443 16 22
181 9 6
5 6 11
255 15 27
89 1 4
293 1 3
210 1 18
85 2 4
339 13 10
442 13 25
279 6 9
63 2 28
104 11 13
19 6 24
427 4 1
411 8 1
317 2 7
91 10 16
120 3 23
145 3 3
167 7 28
196 4 5
239 6 8
478 10 0
203 10 20
78 8 20
210 13 16
383 3 3
288 11 27
445 11 20
401 16 28
436 3 9
498 11 2
438 13 6
176 12 4
209 3 9
199 16 5
138 15 20
180 5 2
91 16 2
161 7 16
40 14 19
482 15 18
42 6 14
159 2 14
96 10 28
393 11 16
419 8 1
195 8 28
482 2 7
359 4 4
130 8 3
46 6 12
443 1 16
471 0 26
491 12 20
496 7 13
147 16 19
261 8 14
306 7 24
231 12 18
112 13 4
62 1 25
298 2 24
495 4 14
417 3 17
358 1 25
141 15 14
231 15 21
8 9 7
156 9 1
490 0 8
72 9 22
40 5 2
50 7 20
8 14 3
139 6 24
337 0 8
251 13 28
17 0 27
262 7 7
156 9 28
24 3 10
53 5 15
347 11 17
77 7 16
41 12 22
176 9 4
235 9 4
472 8 18
336 9 7
73 0 2
39 3 22
112 15 25
143 16 3
65 6 16
54 8 7
108 13 2
25 12 15
292 9 23
468 6 10
25 5 0
349 8 8
443 2 28
224 3 25
83 14 13
255 2 12
56 11 23
18 12 15
44 14 2
416 8 8
0 2 19
18 10 8
465 6 18
0 9 27
424 15 2
47 12 16
142 14 20
380 8 19
25 0 7
77 3 28
183 8 9
243 9 14
170 0 13
2 12 3
297 11 21
404 16 3
488 7 10
304 4 1
479 5 9
221 13 18
192 7 27
329 3 6
410 10 10
163 13 10
24 1 2
31 4 20
34 2 11
193 11 20
320 4 14
155 7 18
369 11 9
248 15 20
327 10 13
468 12 20
242 2 0
242 8 26
42 6 1
254 5 3
286 15 16
115 4 7
444 5 14
437 3 25
134 12 20
111 9 26
127 13 18
294 10 19
373 3 5
55 11 13
482 11 6
380 9 26
472 7 20
62 0 4
159 0 3
365 8 3
485 12 19
198 2 13
220 16 7
160 16 0
489 5 24
275 13 15
471 8 1
290 8 14
318 12 14
53 13 23
119 12 19
129 8 13
291 16 19
275 14 21
495 11 2
213 6 16
258 4 26
71 13 28
251 14 4
488 13 22
407 0 5
388 9 6
11 1 6
474 0 15
394 4 8
248 6 2
128 0 11
427 7 9
7 6 13
232 14 18
302 8 28
261 12 14
177 1 13
251 1 18
432 14 24
39 3 9
268 11 0
237 8 24
222 9 8
46 13 14
247 11 19
81 3 10
163 8 26
22 13 0
396 14 1
195 3 13
162 14 8
297 7 28
410 9 14
265 16 27
182 0 5
163 0 15
312 11 13
345 15 3
426 3 22
479 1 26
267 0 18
81 11 5
168 16 9
97 2 1
482 4 21
489 9 2
18 14 18
333 12 13
10 0 8
311 2 21
478 0 26
353 7 6
417 14 16
133 15 17
323 2 0
429 16 6
365 12 13
28 12 12
411 9 26
179 9 3
318 9 10
166 15 17
207 8 7
15 2 0
193 7 5
411 8 3
385 7 5
149 5 21
383 2 14
71 2 9
19 10 23
134 8 5
253 3 12
100 8 4
12 14 18
48 12 11
269 15 10
157 16 2
492 2 18
30 9 20
115 0 23
67 13 8
87 16 5
44 13 1
210 11 11
338 6 23
63 3 26
328 9 9
230 10 4
36 8 9
477 3 20
138 14 26
292 8 20
427 14 8
89 8 0
8 7 27
160 8 27
418 2 6
420 14 16
392 14 1
383 3 18
475 16 18
473 5 21
143 1 27
460 16 12
291 8 20
230 6 4
448 11 26
218 0 3
133 11 18
200 4 28
434 12 18
219 7 21
399 9 18
403 3 4
313 15 1
148 4 22
46 8 13
271 4 20
16 16 19
254 9 15
191 15 18
140 5 13
444 11 28
32 15 28
282 14 0
50 4 1
50 13 19
468 8 21
391 9 19
265 3 10
98 3 26
299 12 17
289 5 22
12 11 28
95 4 22
352 2 0
91 9 24
58 1 28
472 3 18
155 15 15
384 16 11
407 15 4
262 15 6
154 13 26
384 12 24
484 7 27
119 14 13
456 16 7
274 1 18
316 16 0
146 4 7
201 5 28
27 16 6
343 8 17
153 4 8
227 15 25
109 2 26
124 5 8
47 15 24
373 1 20
129 5 21
310 7 9
229 12 20
347 3 9
62 6 15
398 7 27
460 7 13
241 15 1
378 2 21
396 1 8
303 13 27
384 13 0
446 13 12
165 13 1
360 5 3
353 7 4
295 12 24
303 9 12
176 9 7
88 9 22
358 1 8
103 11 11
257 8 5
183 3 14
19 1 5
193 15 20
326 13 4
43 4 28
355 16 16
135 0 4
39 12 18
233 16 28
126 1 11
359 12 27
4 2 18
467 16 4
166 6 20
432 13 26
93 11 0
292 2 3
477 2 28
309 2 17
131 0 18
182 9 23
427 16 9
316 8 1
210 6 17
349 14 14
98 14 6
246 8 4
461 5 13
224 14 15
452 12 15
78 14 13
268 9 21
167 15 16
90 0 27
460 6 17
32 10 9
122 7 19
37 0 2
195 11 13
197 10 27
10 15 24
74 5 12
131 7 10
402 15 25
329 16 20
292 15 3
455 2 4
230 1 14
23 0 7
160 14 7
25 12 15
156 9 25
307 14 26
4 13 7
493 6 28
425 13 19
280 9 27
458 5 11
113 7 12
203 1 24
269 1 4
34 6 11
228 8 19
482 16 7
471 13 10
110 2 3
81 6 7
350 2 25
84 14 3
243 15 4
204 4 15
328 4 6
263 10 18
357 9 10
256 0 12
158 0 13
326 2 1
452 12 17
346 9 25
490 6 2
302 7 3
141 1 18
435 13 27
84 16 7
490 3 6
426 7 24
116 14 2
252 11 23
381 1 18
232 5 13
119 10 5
393 6 5
358 12 13
401 10 0
74 0 13
86 4 10
264 11 16
390 3 17
154 0 26
363 14 11
26 8 12
131 12 25
352 16 2
368 11 18
157 14 21
57 2 13
283 16 22
266 0 8
81 16 11
476 13 27
23 3 9
376 4 5
348 12 27
82 0 11
96 1 26
128 1 20
441 12 12
9 11 6
394 0 2
70 7 7
493 14 21
474 1 12
391 7 3
278 5 2
349 8 21
168 3 12
181 2 7
148 14 20
65 15 14
190 7 18
443 2 28
166 5 21
18 4 11
430 7 27
118 9 9
388 3 27
456 7 18
450 9 23
172 2 17
476 0 6
439 16 13
18 3 1
445 15 15
273 4 8
232 10 17
89 7 3
229 15 20
12 12 17
346 8 2
144 16 2
325 2 6
391 13 26
55 7 15
433 11 27
474 7 17
363 9 1
328 5 15
274 3 23
151 0 11
119 12 2
248 4 27
213 8 17
374 0 1
359 1 6
110 13 22
437 10 14
271 16 27
92 7 17
26 1 25
7 0 6
297 4 28
299 13 26
477 0 3
50 5 23
108 11 19
449 9 1
378 10 12
212 6 17
216 4 21
464 13 19
366 4 15
288 10 18
198 2 1
359 15 5
110 7 11
52 2 14
323 6 20
411 5 13
108 8 19
477 13 6
125 2 6
333 16 14
35 1 10
109 7 7
40 13 27
51 16 14
327 7 1
22 10 9
367 14 0
316 7 19
335 10 4
395 0 8
447 8 14
0 9 28
494 5 21
364 12 1
47 0 20
54 5 7
60 7 12
451 7 0
108 11 21
222 6 1
140 7 27
471 7 16
89 14 20
252 1 8
300 5 21
471 10 8
308 0 6
444 9 19
228 8 11
354 6 25
283 8 27
9 4 1
3 6 22
472 15 16
195 1 21
358 12 19
172 6 17
124 8 15
254 12 3
28 8 23
453 14 4
477 10 10
324 15 17
105 3 26
18 2 27
75 1 21
338 13 18
122 9 23
405 9 4
245 13 18
116 8 16
31 8 7
284 6 10
292 3 3
364 2 21
482 2 26
373 12 2
26 15 8
216 5 18
239 9 22
454 2 6
303 9 26
344 6 23
245 6 27
78 7 22
342 15 21
259 3 16
406 3 6
122 7 17
253 14 26
65 3 7
332 4 11
51 11 20
309 1 17
45 13 10
396 4 2
302 4 17
114 8 22
93 5 13
69 1 22
389 15 20
484 13 3
117 9 7
146 5 5
390 2 18
420 1 0
178 11 3
90 1 16
173 4 28
245 0 8
244 8 4
333 5 26
278 8 1
43 2 15
67 9 0
25 10 18
38 3 15
204 15 10
316 2 27
325 6 28
134 6 0
489 3 20
226 9 27
461 11 12
400 15 18
144 10 24
142 10 16
414 11 22
329 8 2
236 0 2
467 3 0
194 6 10
342 14 23
499 7 10
151 6 4
327 0 4
25 7 11
97 2 14
474 0 7
253 4 6
150 8 3
356 15 23
5 12 18
20 8 0
418 14 0
113 3 25
249 0 17
213 6 16
13 1 23
489 13 3
113 9 12
256 3 5
138 10 21
481 11 19
451 1 1
283 1 14
376 6 26
431 3 21
59 15 20
456 1 3
304 3 26
16 0 18
151 8 4
180 0 27
444 4 22
69 3 14
424 3 20
342 0 25
235 16 5
132 3 9
486 10 3
281 8 17
353 0 8
277 4 2
26 6 20
353 2 28
321 13 19
372 14 5
226 5 21
59 11 14
485 1 26
72 1 3
63 9 26
346 15 14
44 5 11
451 1 1
241 14 27
299 1 25
454 16 16
313 0 22
155 7 28
79 11 5
161 11 2
346 2 10
375 10 20
91 4 28
229 12 12
418 14 0
303 13 17
469 11 11
42 16 8
406 9 23
236 12 0
114 12 1
433 9 6
125 16 6
249 0 18
141 1 13
157 2 25
499 9 20
375 5 10
194 9 5
287 9 20
275 7 17
240 2 11
252 9 27
235 9 13
189 16 19
388 0 14
140 10 14
210 11 21
128 0 1
202 0 8
96 3 25
61 13 24
443 2 8
411 7 11
374 2 3
79 1 7
214 12 14
322 9 20
491 6 6
443 10 26
370 7 21
35 12 22
328 6 15
145 11 25
213 12 0
28 6 13
452 8 5
327 1 22
495 16 18
110 5 15
131 11 16
104 9 21
364 4 6
384 13 4
137 8 27
74 15 9
57 8 24
472 8 28
74 0 24
324 4 17
411 3 16
389 11 7
79 0 2
390 7 21
340 15 11
67 1 28
361 10 4
230 14 6
71 11 0
177 11 4
202 13 5
413 13 0
46 10 12
482 11 17
129 2 19
341 2 6
45 4 0
132 3 24
112 6 18
453 14 26
180 15 7
384 15 3
267 11 22
471 8 1
51 4 21
400 10 17
171 16 9
398 1 2
485 12 10
364 0 2
0 14 5
77 13 12
390 7 1
316 8 4
358 0 13
262 14 21
394 11 19
192 4 1
263 8 26
269 1 28
48 13 19
230 14 6
401 7 16
403 0 11
24 12 21
468 10 7
358 0 21
479 9 9
325 2 18
244 8 6
203 1 6
389 3 1
194 5 23
190 4 1
382 16 28
277 7 7
492 11 8
355 9 10
34 8 6
21 2 20
475 3 17
223 6 1
448 1 8
349 2 15
491 10 27
498 13 0
19 11 19
16 11 2
279 14 5
172 16 7
178 4 15
136 4 19
151 13 1
5 7 11
397 2 0
342 14 19
467 15 27
170 7 26
488 6 17
117 10 8
449 1 28
463 4 21
67 12 7
213 0 12
497 9 18
60 12 4
138 13 17
260 15 16
291 1 7
482 15 10
413 7 8
236 5 0
101 5 11
495 2 14
83 16 19
125 4 10
333 9 14
365 0 15
408 2 5
219 10 8
492 16 28
435 8 4
84 6 4
118 5 1
330 14 24
191 7 12
4 9 15
133 6 11
107 3 28
56 15 4
124 15 24
412 2 9
10 8 25
298 14 3
303 15 27
228 7 13
371 0 0
66 2 6
81 4 4
12 14 24
494 10 6
175 14 16
2 8 14
309 4 18
3 1 2
418 14 15
202 1 11
489 2 12
232 1 21
260 11 5
127 0 11
164 13 9
350 14 3
445 12 8
343 2 3
360 15 13
478 8 2
142 9 4
47 10 17
158 8 22
247 2 5
383 12 2
6 10 17
126 13 22
296 16 0
176 10 28
268 13 10
467 16 0
417 5 7
316 13 28
139 4 7
475 15 11
96 14 4
497 0 8
3 4 5
484 10 1
395 5 17
18 14 19
235 7 6
129 13 8
199 15 13
440 7 0
37 9 18
371 7 11
487 8 18
206 12 2
199 9 25
353 1 24
439 12 2
374 0 20
357 4 28
274 16 28
259 3 12
194 9 5
3 14 20
122 4 27
291 16 22
436 0 13
76 2 14
188 4 6
57 4 20
459 3 4
122 9 20
444 2 4
33 12 4
170 15 28
128 8 5
483 11 14
60 7 9
110 7 27
245 3 15
331 3 17
438 11 5
77 4 25
257 9 28
86 2 2
362 0 19
264 3 0
279 9 3
442 5 18
496 2 9
69 15 11
273 7 26
315 4 27
87 6 5
327 12 13
122 4 17
363 7 9
172 15 10
331 12 15
99 6 6
374 4 15
33 0 19
185 7 11
224 10 13
63 1 20
190 13 20
83 7 8
94 16 16
3 9 4
351 9 5
298 12 23
428 16 11
487 7 3
351 0 6
256 16 8
163 7 17
281 14 6
251 15 9
199 16 13
94 13 14
324 13 27
382 9 19
73 10 21
142 5 0
91 9 13
244 7 10
403 12 9
498 14 12
416 0 11
314 1 20
29 10 23
468 5 8
237 4 22
407 11 17
220 15 9
21 15 17
329 14 4
396 15 13
288 4 2
127 9 27
217 2 26
192 10 17
475 13 4
112 11 13
87 7 19
35 9 18
477 14 13
389 1 10
155 10 1
253 13 20
134 6 20
36 15 28
47 2 11
273 7 5
393 8 13
319 1 7
390 15 3
314 14 10
335 12 20
402 15 26
446 14 23
285 14 14
111 9 18
71 9 9
214 12 1
62 14 23
329 6 13
473 11 8
93 1 3
424 8 11
2 12 12
461 3 6
276 0 16
76 2 14
323 10 9
258 9 1
224 5 2
282 14 8
154 0 11
327 2 5
136 14 3
284 5 27
229 4 2
381 4 17
10 6 6
290 10 5
205 5 14
167 16 28
476 0 11
451 12 4
326 16 25
236 3 12
222 11 6
351 8 7
73 11 0
53 2 26
470 7 24
201 0 21
319 0 9
423 14 26
52 14 27
495 4 22
104 11 17
336 0 21
307 11 21
69 7 11
313 0 4
461 2 2
92 2 11
78 6 22
114 16 18
127 11 21
374 2 8
83 10 6
184 11 23
287 0 13
464 3 5
2 6 10
344 11 26
55 3 0
88 8 15
379 1 6
365 6 18
36 9 0
115 6 10
470 4 5
326 3 20
318 12 13
395 7 26
346 3 21
34 6 12
94 7 28
261 13 12
273 10 0
141 13 2
4 2 5
414 2 23
303 6 6
206 12 26
447 6 6
488 0 17
107 10 13
99 3 17
195 6 20
249 8 22
208 15 19
238 1 2
297 4 28
12 12 21
421 7 14
314 10 2
362 6 14
444 9 17
394 5 15
234 15 8
469 6 8
97 13 4
299 4 8
192 7 4
28 9 8
106 16 11
342 6 8
357 8 3
94 1 3
121 2 28
369 3 27
319 2 16
219 10 19
177 6 2
486 12 15
51 6 9
75 7 17
308 0 24
245 15 15
264 6 7
198 9 16
367 16 1
38 8 15
169 8 0
333 14 15
108 10 23
4 0 22
279 16 15
475 13 28
237 5 16
359 14 18
0 6 13
338 4 17
241 12 12
187 11 9
409 15 13
102 8 18
448 11 20
353 13 24
210 10 23
415 4 2
389 9 18
337 4 15
12 11 25
249 15 21
153 2 17
391 14 7
187 8 15
339 14 5
53 4 10
66 10 23
181 6 12
59 0 21
59 2 1
272 1 28
294 2 22
204 8 21
58 2 26
155 14 17
69 2 28
287 2 12
138 9 3
212 9 14
22 8 9
76 4 26
221 2 5
180 8 25
129 4 15
217 15 16
490 5 18
362 16 24
55 9 24
430 7 24
170 3 27
179 5 3
257 14 4
365 3 6
374 14 9
364 13 28
241 6 5
364 10 12
322 15 11
339 1 0
331 2 14
458 4 15
385 11 26
430 8 6
469 12 9
98 11 10
19 15 4
222 16 19
177 3 10
199 0 4
291 15 25
457 2 19
446 14 14
249 8 22
314 14 16
20 15 5
420 5 25
307 12 3
29 0 7
175 9 21
392 6 12
393 11 11
422 12 1
341 9 6
253 14 19
348 0 12
350 12 28
321 6 21
130 7 10
407 13 15
318 0 9
26 10 17
115 13 18
335 4 4
129 9 4
350 12 14
89 5 22
88 12 7
499 2 7
498 16 25
262 14 24
122 2 24
322 11 7
170 0 6
210 15 0
57 12 11
398 13 18
142 13 11
259 16 21
66 8 3
90 3 0
415 7 1
262 11 25
446 1 27
455 8 20
214 8 19
367 6 26
486 14 0
69 13 2
249 0 1
59 12 16
361 0 8
345 14 17
287 5 20
343 9 20
386 10 17
303 16 17
194 16 1
87 6 28
130 16 12
360 10 14
224 13 13
146 7 21
472 5 19
329 16 13
497 4 20
37 2 11
333 15 19
453 15 19
178 1 7
42 4 3
444 7 11
422 6 19
29 11 7
242 5 9
109 8 25
431 1 5
135 2 16
126 14 15
76 5 1
493 12 3
203 0 0
23 8 23
247 2 2
307 9 20
477 7 9
242 14 7
65 8 27
146 7 12
440 11 4
438 13 25
62 3 2
313 9 20
83 0 24
314 16 16
174 7 4
388 13 16
156 11 4
443 12 16
42 3 3
60 1 28
455 12 12
77 7 18
150 3 17
1 8 8
281 9 26
451 10 26
287 10 19
362 14 12
386 14 7
224 6 14
422 0 0
61 1 7
310 3 7
305 9 14
224 4 1
213 5 7
145 0 5
453 2 16
85 11 28
122 13 3
391 9 2
153 12 11
105 7 13
422 12 9
204 8 23
416 0 4
162 6 3
53 11 13
433 12 7
230 13 0
281 5 25
401 5 26
496 9 6
85 14 19
148 1 7
31 11 8
257 8 15
45 4 21
267 13 25
112 9 25
194 10 10
18 10 25
334 12 19
189 3 16
268 2 23
480 13 17
80 0 25
170 5 26
35 4 23
28 2 15
415 7 13
423 1 16
166 5 4
285 16 7
362 3 2
101 6 9
164 10 10
266 15 10
377 4 26
353 1 25
186 10 1
491 8 15
281 1 21
260 8 27
18 6 23
204 16 7
164 15 24
442 6 10
364 5 20
221 6 24
220 9 9
397 7 16
233 13 21
29 15 28
134 5 9
271 1 26
344 2 9
407 16 10
238 3 27
388 14 12
88 1 12
437 10 26
284 12 2
467 8 23
208 0 19
422 6 9
321 1 12
119 4 9
482 3 20
343 7 12
266 3 5
294 3 9
341 4 5
107 11 13
407 15 2
24 12 18
434 15 2
483 7 6
179 3 20
390 5 19
327 13 28
212 6 6
199 15 26
285 5 4
119 2 16
441 4 8
149 10 16
175 9 0
375 5 28
239 12 18
252 16 6
179 1 19
440 8 3
62 9 0
177 16 9
399 12 12
277 16 26
195 8 6
350 6 9
92 13 14
125 9 13
288 5 18
286 5 28
357 0 5
397 4 23
249 4 17
154 4 1
180 15 17
351 15 19
388 0 28
433 15 1
258 7 14
194 0 26
293 2 23
139 14 18
195 9 22
416 15 7
105 3 15
213 9 12
248 3 12
270 3 10
415 10 19
311 14 11
456 5 14
422 7 17
200 0 27
338 4 18
90 9 4
455 10 8
273 1 20
203 3 16
490 12 15
2 6 10
407 9 17
402 15 24
3 2 20
422 15 16
376 14 5
151 1 9
317 2 14
75 0 1
296 9 20
423 11 0
155 14 18
331 6 3
278 15 15
359 4 21
397 15 8
134 14 13
33 2 17
170 5 8
310 5 15
7 5 18
165 16 4
235 11 20
234 13 26
59 14 13
60 5 13
267 4 9
136 2 5
145 8 3
362 5 10
13 10 4
135 7 22
470 15 13
172 2 1
85 5 15
167 3 25
55 4 19
238 2 24
161 11 7
124 5 4
103 14 10
499 3 9
404 11 16
417 3 3
426 5 7
18 6 7
61 12 14
13 12 28
225 1 4
402 13 19
371 0 28
162 2 13
134 13 15
6 2 7
477 10 2
129 14 28
73 7 1
268 12 0
225 2 17
364 12 27
69 10 22
210 14 23
300 5 8
201 12 3
331 13 4
216 7 28
315 0 9
260 5 16
4 16 22
370 10 21
79 9 23
395 10 11
130 16 17
206 2 10
389 10 19
107 1 9
487 8 25
404 9 21
330 13 11
17 15 23
89 4 16
55 14 28
174 13 18
79 7 8
271 5 7
246 6 16
124 2 2
359 13 24
382 2 13
363 13 24
228 12 15
323 1 7
270 14 18
101 11 15
463 16 5
210 0 1
331 0 27
338 10 16
80 7 24
173 9 13
48 8 2
101 11 13
432 10 19
23 1 4
45 14 13
35 10 4
150 14 1
14 11 28
341 14 20
367 15 23
131 11 0
235 14 8
71 7 3
496 6 3
446 16 25
313 14 24
107 9 13
481 11 4
394 0 27
243 14 20
96 10 14
296 2 23
50 6 4
291 0 5
110 10 4
362 1 1
286 0 9
40 3 16
164 4 22
0 5 4
375 3 3
269 11 2
37 15 9
46 9 0
380 2 2
3 12 12
432 0 12
23 2 18
214 5 12
154 2 1
136 9 10
376 2 3
315 8 3
343 7 15
461 2 17
395 4 22
62 15 18
92 15 23
401 10 11
97 1 16
140 8 13
202 7 26
24 9 24
435 10 13
224 0 8
273 12 7
274 4 21
356 14 23
436 14 7
417 10 11
466 7 21
329 1 8
203 15 15
392 3 21
390 1 22
110 8 27
217 10 27
432 11 9
73 15 23
118 6 15
368 8 11
269 0 28
341 14 15
439 10 11
115 4 18
370 0 5
492 6 28
85 16 24
402 0 8
122 11 20
483 8 24
267 6 20
347 16 4
260 14 22
169 11 24
60 2 4
41 3 22
497 11 4
265 8 22
485 3 5
462 7 19
422 3 19
320 0 6
115 14 24
76 5 27
358 8 18
98 8 3
486 9 5
369 0 24
8 0 0
442 15 16
182 0 7
156 8 10
327 4 12
246 3 27
104 13 5
146 11 15
195 9 13
347 9 16
65 10 15
359 16 16
83 2 24
254 13 0
455 7 2
131 4 4
39 9 22
227 9 19
366 12 24
48 0 5
422 7 2
408 3 22
191 10 15
295 14 12
485 6 5
254 15 26
313 5 20
12 5 14
464 11 22
221 7 19
158 10 3
395 8 27
31 15 20
211 4 15
492 0 24
381 14 20
24 13 11
458 7 7
457 13 4
406 7 28
50 8 7
151 8 25
495 14 4
328 3 18
136 16 11
184 13 21
413 14 14
243 8 5
265 13 13
93 12 6
463 11 7
52 3 3
232 2 11
345 7 5
457 0 5
250 13 14
387 2 9
242 8 19
41 13 4
38 12 23
481 7 28
390 13 5
398 10 16
486 9 3
402 8 22
244 6 5
240 5 3
102 14 19
282 0 6
409 7 5
124 14 21
278 16 9
18 13 27
475 10 21
202 1 5
216 7 0
413 11 10
313 10 7
184 3 8
66 2 19
266 1 12
356 12 5
373 5 22
117 16 28
335 15 26
43 7 13
300 14 10
26 14 1
264 16 0
203 10 21
83 3 13
188 8 24
157 8 25
305 3 0
267 3 25
467 2 23
125 15 15
104 6 27
31 3 16
137 5 11
250 9 18
347 5 15
269 14 14
24 7 28
34 16 14
335 12 6
176 7 12
437 8 18
28 8 15
254 15 11
98 13 8
117 16 19
471 12 11
299 0 1
34 1 13
63 3 4
370 4 19
285 11 4
282 11 7
201 8 9
100 12 22
0 7 16
386 3 9
6 12 27
216 2 28
238 0 26
115 0 23
296 8 3
304 5 16
47 8 23
384 15 13
61 10 26
303 4 17
342 6 0
96 15 23
292 0 16
383 15 14
194 16 18
69 8 23
410 3 22
67 7 18
187 3 13
274 1 19
43 1 25
410 4 1
402 0 28
296 11 5
471 4 24
200 16 3
178 15 20
0 11 1
240 0 21
232 1 21
443 12 24
59 16 14
40 9 25
360 10 17
31 4 6
81 11 16
62 0 25
144 15 9
25 16 19
231 15 18
209 11 2
41 4 12
286 2 12
348 10 2
111 11 22
205 2 1
457 1 18
201 9 14
66 6 3
95 4 1
364 10 9
122 4 5
127 16 17
214 1 9
339 2 0
425 14 13
177 3 3
414 0 0
147 15 21
91 6 25
489 7 24
349 14 15
287 12 16
379 7 28
349 2 23
267 13 25
95 12 23
94 8 23
489 10 11
455 15 15
186 12 3
420 14 21
170 1 23
294 0 24
389 6 15
307 14 19
393 0 15
487 12 26
478 4 0
52 9 23
341 2 24
153 8 3
107 15 9
339 6 26
282 6 23
117 11 3
481 10 24
99 9 12
278 9 0
329 13 11
438 14 20
232 10 21
176 11 9
491 12 13
231 16 28
284 0 28
498 13 6
91 4 22
413 13 1
371 13 18
432 8 22
144 8 24
371 16 16
213 6 1
294 15 20
116 3 22
181 1 3
293 0 24
434 13 23
71 3 9
55 1 27
270 2 8
180 7 9
260 7 28
310 12 10
411 8 13
57 5 3
455 7 11
392 13 0
413 13 2
124 8 11
488 11 19
117 16 7
138 11 21
413 7 0
50 10 9
422 9 18
377 16 25
61 13 3
463 9 2
37 10 22
418 12 18
380 2 19
224 16 2
120 10 3
284 8 18
188 14 11
289 11 15
15 4 1
166 13 24
412 4 21
150 9 5
429 9 24
165 8 20
35 9 15
408 2 17
433 5 21
116 7 25
130 5 22
163 16 7
333 14 22
374 13 28
328 12 2
160 11 17
71 13 25
63 4 22
194 6 25
269 3 15
449 0 8
425 0 8
120 12 22
490 13 11
90 2 11
30 7 24
454 7 11
305 8 3
164 10 20
224 1 5
216 3 10
319 12 24
62 5 4
326 5 26
388 12 19
266 6 27
290 3 10
209 8 1
367 10 19
69 8 21
11 9 12
17 0 20
316 2 19
280 11 25
260 0 5
403 15 14
257 10 21
342 12 5
5 16 6
301 7 24
397 15 1
242 7 2
349 5 28
360 11 1
264 16 26
257 16 6
266 13 24
293 15 21
408 8 27
102 6 24
433 16 28
35 6 3
0 13 27
443 13 16
314 14 7
210 0 4
305 4 28
317 14 19
271 0 11
43 10 13
143 16 11
191 1 1
147 3 24
469 14 24
58 13 9
446 2 13
324 7 1
335 10 18
39 0 27
257 4 25
449 7 26
185 9 22
281 2 21
416 0 16
103 16 0
277 16 4
89 3 17
323 14 24
327 16 15
80 15 6
131 13 25
432 15 9
51 7 12
136 12 17
421 1 12
120 9 2
83 8 6
296 15 19
490 12 7
49 6 26
451 7 5
468 1 8
340 16 22
196 3 27
14 9 25
116 9 21
437 12 26
402 14 10
371 2 28
421 8 3
56 6 2
353 15 10
249 5 14
86 10 11
491 3 11
89 16 2
137 14 0
435 10 23
200 1 10
227 15 9
108 8 11
53 3 19
140 4 12
209 5 20
336 14 7
357 7 12
117 0 27
39 2 28
2 5 28
100 3 16
152 14 7
60 4 24
354 4 5
450 10 3
441 1 7
487 1 20
356 11 0
388 9 6
162 11 7
491 7 27
445 4 7
323 5 11
451 13 16
307 8 18
72 13 19
415 12 15
50 16 15
411 16 11
324 3 22
258 16 13
211 5 2
482 6 17
12 2 25
165 9 28
89 15 15
454 0 2
303 1 11
444 4 3
484 3 16
112 11 7
24 6 10
176 10 24
383 2 23
301 16 8
450 14 3
120 11 20
438 15 17
438 9 12
489 6 5
9 2 17
79 11 24
156 6 19
280 12 1
120 0 16
124 13 18
20 4 4
408 8 2
122 8 25
369 2 24
382 1 22
480 15 13
333 1 21
240 14 28
78 5 14
15 3 28
156 6 10
264 5 19
286 4 22
162 12 17
58 12 27
174 14 5
483 13 4
422 2 9
120 3 12
158 0 25
74 13 16
154 0 27
272 4 1
330 0 2
405 4 1
295 1 26
487 10 19
163 2 20
445 5 2
311 8 4
303 11 14
232 11 11
123 8 16
64 2 12
195 1 4
237 4 2
355 0 3
368 4 11
412 8 12
418 7 22
482 9 15
160 13 4
55 1 18
83 5 0
428 6 2
318 9 10
272 14 24
100 11 18
16 3 8
290 0 22
64 7 7
335 11 18
33 4 16
325 15 28
365 3 9
124 1 8
217 11 10
230 16 4
122 1 18
25 14 17
5 15 24
164 7 7
279 6 21
191 3 24
470 16 26
169 8 9
163 12 0
330 11 7
34 16 25
196 14 6
410 10 16
379 2 14
138 9 5
64 12 12
183 1 27
96 15 11
202 14 12
372 2 0
73 10 13
432 15 18
307 0 18
41 15 18
181 1 6
154 2 10
181 10 24
270 3 20
22 13 25
335 15 7
181 0 25
320 16 12
3 8 4
408 13 25
84 10 19
164 8 22
366 8 14
173 11 26
143 10 14
172 14 15
92 5 0
204 10 13
475 8 3
117 14 25
406 4 12
268 0 17
465 12 19
411 6 9
146 9 27
488 11 6
33 15 9
118 0 15
364 1 2
95 9 23
175 10 12
410 12 27
183 8 4
240 5 13
376 9 11
239 1 27
29 0 10
486 6 8
80 2 1
159 10 22
7 13 11
186 5 17
33 3 7
327 6 24
300 8 21
110 1 10
452 10 2
343 6 21
88 0 21
299 1 27
85 16 12
229 16 15
145 0 11
235 4 26
361 2 1
456 0 25
342 8 21
76 6 17
448 16 10
49 14 20
461 10 24
274 1 18
167 8 7
452 10 17
320 4 22
97 13 14
325 4 27
428 2 20
336 8 13
107 6 7
174 14 4
414 3 21
301 13 25
367 2 11
305 4 16
368 16 11
227 0 4
190 15 27
431 7 18
271 12 20
297 7 19
437 16 1
123 15 28
77 3 17
35 2 4
442 0 18
197 10 8
27 8 17
457 0 25
308 2 7
75 8 3
350 1 4
94 9 12
414 7 13
58 10 2
40 0 18
381 6 25
115 2 4
89 7 19
479 6 10
60 9 7
238 15 7
200 10 5
321 11 10
340 2 19
93 6 17
454 8 13
196 14 4
210 12 1
360 4 6
343 15 14
365 8 4
403 8 8
324 14 9
200 12 16
149 0 23
147 7 14
55 9 12
325 13 2
18 7 16
466 16 11
268 7 15
143 15 11
403 1 5
406 10 10
213 6 17
346 0 3
371 7 1
196 4 2
65 12 8
79 5 12
477 5 13
478 0 26
423 1 26
370 11 2
186 14 5
369 7 6
137 5 2
134 8 0
415 13 16
226 9 13
325 13 18
175 16 10
358 12 24
128 8 0
49 6 11
277 0 15
380 8 3
217 6 15
248 6 7
69 1 0
398 1 11
134 0 21
170 16 13
484 9 27
285 5 26
457 6 20
130 0 6
260 2 28
460 11 24
132 12 2
103 11 25
56 12 17
457 14 25
34 9 24
218 1 3
374 1 16
387 16 10
423 1 15
406 11 13
102 0 7
325 6 25
164 9 6
46 12 16
142 15 5
298 8 17
236 5 4
81 12 3
168 3 24
149 16 22
144 1 12
206 14 15
233 11 12
202 7 4
12 16 23
362 14 20
29 0 19
268 1 4
218 11 12
382 4 10
251 10 17
141 12 1
96 16 13
266 0 0
136 15 3
394 7 20
334 4 17
183 2 6
378 10 5
369 3 13
322 8 27
439 8 27
218 13 12
421 3 2
328 13 20
244 16 7
186 3 9
58 2 4
26 0 2
276 3 10
38 15 27
281 6 7
494 5 20
119 8 0
97 6 16
39 3 13
445 4 28
326 9 14
314 10 15
321 12 16
75 10 0
443 5 28
499 5 3
73 13 22
33 10 21
473 9 0
285 9 15
211 15 10
150 0 0
389 8 0
24 13 10
151 5 17
180 15 9
408 1 11
440 8 21
393 12 27
438 12 5
397 14 24
475 13 11
327 3 10
341 2 1
369 12 8
404 7 26
47 16 9
495 9 0
184 16 27
416 15 14
85 13 13
63 6 2
174 15 23
474 16 17
105 8 16
329 3 21
43 3 26
412 9 6
230 4 0
429 9 11
29 16 6
320 1 28
277 9 13
417 4 3
413 11 15
433 15 7
320 14 12
398 7 27
119 1 9
332 15 15
126 8 27
125 11 12
240 6 11
404 10 11
118 6 1
59 10 8
480 1 1
134 11 14
163 10 1
37 13 4
110 15 24
422 13 2
88 4 21
287 11 11
153 14 6
247 8 27
479 10 9
195 13 18
173 8 26
121 12 20
410 11 26
308 3 27
118 11 7
409 3 5
404 3 28
234 3 1
341 1 10
199 2 26
34 16 2
165 1 16
9 9 24
55 12 6
201 15 13
435 5 1
266 1 23
93 2 19
263 11 1
99 12 27
112 0 1
448 16 24
289 7 20
178 11 7
109 2 19
325 3 0
367 8 15
327 5 18
143 15 26
471 11 23
497 2 20
300 12 8
80 3 15
487 8 24
229 15 16
232 4 20
310 1 20
74 6 10
352 16 0
363 8 8
264 5 11
394 5 6
22 11 7
461 14 11
148 14 22
374 14 8
395 6 14
330 5 10
227 3 25
391 14 22
413 4 6
418 3 4
148 15 22
416 0 23
31 4 24
138 10 15
404 7 22
310 1 24
310 16 13
180 7 27
155 13 22
87 2 12
407 5 12
187 10 4
270 0 9
95 16 4
126 14 1
305 16 3
56 5 13
187 5 12
324 9 1
234 10 13
285 16 25
69 16 24
82 7 2
53 7 3
241 9 14
156 15 8
179 4 25
184 10 7
132 5 10
371 10 21
42 6 11
13 1 0
358 2 25
463 5 23
442 2 8
301 8 13
225 13 26
40 3 25
376 15 21
135 0 0
335 9 6
137 6 5
154 3 28
314 2 8
5 4 20
257 4 15
357 13 15
166 14 12
190 4 13
470 8 23
469 1 23
436 9 9
12 12 15
248 9 9
83 11 9
499 10 22
124 11 3
369 13 24
220 13 6
285 2 14
249 14 22
335 11 24
441 11 15
420 15 16
392 13 4
362 10 22
17 11 5
215 16 21
309 3 6
153 1 10
94 3 1
268 0 26
459 10 14
264 16 13
376 11 15
50 1 13
305 12 26
14 16 6
0 1 4
497 12 26
429 13 23
1 11 14
382 1 7
225 16 26
62 7 12
433 2 0
464 6 4
145 16 0
264 10 8
82 5 21
380 3 25
337 1 12
100 9 20
310 5 19
225 15 15
213 9 22
284 13 14
240 7 8
200 15 24
94 5 5
402 11 5
264 0 8
64 7 18
445 2 5
439 12 7
215 8 24
410 14 3
180 7 4
451 13 5
130 14 20
454 6 1
16 0 23
373 9 21
205 6 2
103 11 17
21 4 14
58 16 1
103 12 2
236 4 8
126 15 22
265 15 10
466 5 20
217 13 27
455 13 4
470 15 12
50 4 6
326 16 7
7 4 18
449 0 28
74 9 13
378 6 26
313 6 27
257 7 21
466 0 14
454 0 7
321 2 23
317 15 0
334 8 24
284 10 14
404 6 16
477 7 16
98 16 24
437 8 12
481 6 8
6 15 20
360 6 21
118 3 12
408 5 12
133 4 6
213 16 16
477 12 28
368 14 16
362 9 10
293 10 18
483 11 9
171 10 13
399 0 8
35 7 21
498 0 19
454 11 27
187 1 24
193 7 28
383 0 7
413 11 7
134 12 5
327 16 18
6 15 2
340 8 6
270 9 22
72 10 5
225 14 4
333 1 17
179 5 1
136 10 24
489 6 14
192 16 12
192 2 4
97 3 6
355 12 13
132 13 12
427 5 6
195 5 7
339 16 0
82 1 8
420 14 26
438 1 14
125 15 19
430 2 24
184 7 11
473 1 24
315 8 21
246 14 18
180 5 11
278 0 6
494 3 1
99 7 17
304 14 6
391 5 7
30 15 28
235 12 9
106 7 6
477 8 16
153 5 10
496 0 24
108 9 12
191 6 7
467 5 12
483 3 9
180 8 22
398 13 24
192 9 21
106 15 8
88 4 19
456 15 24
41 12 19
272 12 10
442 8 6
376 10 9
289 10 11
91 2 14
382 5 24
296 9 13
172 16 12
114 4 14
492 2 4
361 13 27
434 14 21
239 7 19
41 2 27
181 8 19
405 5 5
28 1 14
268 8 20
202 13 23
184 15 6
332 10 16
75 13 13
433 1 25
53 11 13
230 0 0
100 12 11
94 8 14
449 9 17
406 8 0
271 4 17
383 12 23
375 10 20
230 13 15
59 5 6
185 2 6
312 12 19
426 6 8
306 8 15
167 11 24
284 2 20
329 10 7
72 9 21
327 10 18
372 4 28
367 1 9
132 1 22
194 9 28
84 7 13
30 16 14
329 3 6
498 1 24
129 5 15
197 10 24
146 6 24
262 15 25
245 1 23
348 10 14
468 12 28
372 7 20
393 0 16
270 2 25
139 10 12
335 10 13
201 14 13
35 4 4
39 12 14
42 8 10
228 5 14
123 16 25
28 3 8
470 5 17
184 16 16
199 4 18
249 8 26
410 0 10
422 2 21
179 10 21
368 5 18
405 7 7
88 16 5
340 5 18
498 3 10
221 1 18
495 4 25
360 14 8
149 4 0
303 2 23
365 7 23
291 13 18
180 1 16
267 16 15
236 10 14
104 16 10
365 9 28
152 16 28
452 5 20
58 15 27
279 5 5
229 11 1
266 3 15
282 15 16
378 8 24
320 15 18
229 12 1
72 12 7
237 12 16
197 0 18
143 12 6
36 10 3
50 6 22
265 11 6
7 9 5
349 5 17
114 8 11
327 8 7
484 5 17
5 4 11
164 13 13
406 8 13
51 11 18
52 7 11
15 2 11
166 2 15
134 10 15
474 14 0
126 10 12
147 2 9
128 12 24
457 8 2
311 15 3
128 9 16
352 5 9
420 10 9
442 13 24
56 14 5
94 13 5
337 1 23
132 15 22
128 2 19
40 13 27
462 8 0
485 16 23
202 13 17
5 5 22
235 12 15
150 8 6
374 0 23
494 2 23
228 15 6
35 0 13
151 14 1
265 1 18
161 1 17
136 2 25
310 8 0
190 11 28
114 2 22
110 3 11
112 1 8
302 6 20
181 10 6
299 15 23
221 3 12
105 7 0
465 6 26
66 2 21
245 16 24
275 10 28
418 10 23
412 6 21
492 6 7
64 5 18
148 5 3
488 16 22
121 15 23
313 5 23
465 8 2
213 14 11
20 5 15
116 4 11
40 1 17
360 11 6
342 5 28
289 1 3
191 10 28
88 5 14
289 1 21
451 14 14
419 0 19
11 16 23
315 10 15
117 6 18
465 12 12
42 14 9
95 8 1
341 6 21
261 14 19
352 4 27
180 5 14
88 2 15
282 3 22
440 5 22
431 4 19
108 0 9
446 12 9
385 1 3
403 15 4
234 3 20
295 3 9
40 9 1
26 3 20
139 2 0
368 1 1
495 13 23
11 7 3
223 5 10
250 2 10
299 6 26
45 6 1
412 12 28
448 1 27
32 8 3
499 6 13
284 7 15
336 4 8
468 11 11
434 7 1
69 14 5
64 12 23
162 6 21
381 3 11
170 4 26
434 16 5
459 16 10
437 14 24
15 13 7
373 0 21
5 6 18
404 9 21
141 4 9
271 7 22
3 0 0
256 6 19
46 5 0
50 9 22
56 4 5
414 14 17
489 10 21
488 5 11
80 3 26
373 8 27
9 5 17
427 14 1
384 8 1
385 10 12
88 16 23
110 7 22
141 10 14
29 1 2
496 9 26
47 13 2
113 4 8
93 4 1
478 3 6
416 7 14
97 1 2
357 12 8
70 3 0
111 1 19
188 14 16
459 5 15
477 9 2
227 11 10
106 14 22
172 10 26
15 3 19
339 1 21
414 6 7
38 9 26
329 0 16
94 3 22
125 4 12
418 0 26
126 0 22
244 4 19
283 14 21
171 8 15
381 3 11
389 8 9
255 4 16
268 7 25
24 2 7
295 0 2
83 4 19
290 4 11
288 6 15
311 10 0
364 7 21
386 16 1
5 3 11
4 8 19
282 9 15
378 6 10
255 15 27
287 5 16
486 0 13
341 11 27
421 1 24
405 7 14
200 1 23
92 13 24
306 13 6
293 2 1
9 0 15
177 0 2
93 14 6
451 15 18
456 7 21
30 14 19
87 16 20
68 6 25
141 9 9
142 8 7
247 2 8
308 9 28
204 8 24
170 6 18
198 6 28
240 14 4
153 9 5
72 4 22
495 2 14
62 9 11
140 11 12
449 12 22
59 12 8
364 10 8
414 15 21
428 6 10
333 5 7
327 10 13
301 14 12
14 0 14
301 6 3
353 15 23
193 10 12
499 2 4
184 1 26
263 2 2
137 2 0
114 5 19
200 14 19
328 2 22
258 11 2
245 6 3
459 2 24
499 12 20
369 5 19
159 0 8
127 16 21
366 13 4
240 14 14
314 9 19
162 14 18
459 1 23
126 7 21
436 3 5
43 2 2
159 11 23
291 2 1
204 8 24
14 3 12
103 11 18
364 13 19
469 0 9
19 8 17
78 11 17
19 2 14
84 8 9
117 9 0
63 15 6
67 1 25
48 4 2
284 1 22
140 10 24
201 4 22
270 1 11
147 11 14
195 14 27
228 0 23
411 13 7
312 3 26
386 11 8
282 9 23
364 11 17
75 11 12
32 9 0
110 4 4
78 4 27
433 2 24
164 9 27
153 12 10
38 15 5
425 15 15
140 13 20
292 10 28
346 14 5
482 14 3
313 1 23
211 8 6
484 11 15
59 10 2
394 12 15
496 5 0
437 14 11
474 11 0
266 7 10
197 2 0
15 13 5
492 1 19
140 8 28
188 3 28
304 10 21
311 4 20
41 15 20
322 11 13
324 10 25
245 5 22
282 2 10
470 8 26
93 3 2
22 3 14
157 2 27
169 16 11
402 7 4
221 11 18
264 7 5
247 8 20
264 13 3
34 11 2
442 0 26
377 5 7
102 15 3
119 15 24
464 14 21
181 1 16
360 0 24
475 4 24
254 5 0
105 9 0
375 8 16
373 15 14
487 5 25
414 2 18
442 10 6
3 9 9
108 8 16
284 1 25
149 2 13
130 0 23
375 9 9
92 10 14
174 2 16
175 11 17
208 4 15
140 7 13
369 16 21
252 9 13
213 0 5
148 3 0
66 7 17
339 1 27
386 15 8
7 3 9
194 15 2
352 11 9
147 1 19
386 11 1
375 8 13
62 4 8
442 12 28
418 1 19
352 6 23
363 6 24
308 3 11
331 13 6
160 6 16
88 12 26
404 11 27
474 8 20
144 7 27
134 7 26
141 5 20
370 2 25
491 14 2
328 7 3
175 10 22
499 2 12
114 5 25
65 11 16
137 4 15
172 4 0
323 9 10
380 11 5
106 6 6
476 7 12
366 12 1
260 7 24
479 16 12
384 6 8
15 12 7
80 12 25
459 1 25
262 9 14
44 8 3
230 14 10
87 0 27
117 7 28
14 8 0
84 9 20
284 2 27
82 6 18
466 2 12
105 11 23
73 7 11
206 14 11
190 16 7
487 4 18
205 14 9
313 6 27
413 7 19
399 0 7
103 15 23
253 9 21
331 4 15
463 0 6
105 11 0
39 4 15
75 3 4
289 7 26
160 9 9
457 10 17
289 14 25
445 7 18
221 11 23
393 3 18
154 2 25
437 10 16
220 0 21
214 3 5
291 16 0
332 2 28
145 15 16
181 1 17
125 8 15
336 4 10
330 10 16
9 5 22
395 13 13
228 7 4
234 7 7
282 13 7
145 2 7
191 11 17
91 14 7
85 11 0
114 15 15
213 0 17
421 3 25
335 11 26
132 7 3
329 1 10
56 12 23
392 0 18
185 16 27
144 14 5
433 11 9
204 9 25
487 5 16
144 14 17
21 5 16
316 11 25
2 1 12
491 10 27
420 9 20
226 15 16
480 3 18
67 3 24
232 3 15
197 7 3
206 8 28
196 2 8
488 11 0
238 5 4
289 7 25
73 8 11
496 2 24
118 11 19
422 2 3
73 13 23
133 0 0
386 9 25
197 4 6
219 7 8
196 14 17
485 0 14
163 13 25
233 4 15
90 2 9
218 8 19
447 5 18
205 12 12
215 5 28
379 16 28
386 5 12
41 7 24
82 15 9
56 11 21
243 9 14
482 0 19
266 3 23
194 0 26
198 15 23
109 2 2
479 16 18
146 2 5
426 4 23
373 7 8
125 1 5
61 6 9
232 15 10
311 9 10
358 4 15
96 8 26
285 15 12
239 16 1
272 16 16
42 7 17
166 14 24
338 8 7
476 0 10
92 2 2
41 4 22
170 6 23
444 10 9
114 14 12
406 7 14
284 4 0
144 2 8
391 6 10
479 4 16
211 11 17
83 3 6
434 1 3
424 12 26
253 16 4
12 5 14
104 0 15
238 8 13
111 5 17
200 0 19
379 0 17
246 4 19
11 14 23
254 12 16
254 1 17
257 2 3
117 8 7
141 13 24
372 15 23
108 6 26
158 1 15
164 3 6
114 2 24
378 6 15
284 15 5
260 13 13
492 10 27
256 8 13
340 14 20
157 16 10
335 10 26
102 11 26
328 7 18
495 8 19
357 10 28
414 6 26
486 12 17
179 14 13
343 13 26
11 2 8
7 16 14
358 5 10
296 7 25
395 11 23
79 5 19
16 9 4
28 9 21
332 4 12
26 7 23
325 10 21
297 4 9
381 8 0
458 7 26
15 7 9
208 3 9
167 15 22
486 4 26
132 12 3
241 4 4
353 12 13
150 6 7
212 6 11
375 15 28
380 8 0
355 2 2
481 0 9
412 13 4
173 16 13
235 6 1
362 9 24
227 12 23
130 3 24
472 0 25
150 12 1
294 2 14
335 13 23
243 14 16
379 0 6
473 2 7
76 0 25
84 8 24
9 8 20
143 7 22
356 16 23
77 8 16
181 6 12
427 10 15
221 1 7
413 8 26
443 6 18
345 3 18
341 14 0
476 16 28
437 14 0
380 8 8
429 1 3
257 2 11
183 3 15
55 11 21
185 9 24
498 8 19
230 3 12
251 7 8
82 11 21
115 6 10
39 15 4
113 0 21
448 11 1
48 9 1
118 3 23
24 13 4
407 12 21
353 1 21
41 16 14
246 6 5
379 7 24
423 0 3
101 8 22
461 13 1
453 3 27
395 8 1
489 13 3
50 8 21
91 10 25
399 1 7
2 1 28
103 10 19
220 4 26
444 3 12
408 6 25
251 11 5
407 13 9
344 7 2
244 8 12
46 13 1
456 9 18
239 9 11
404 15 26
250 14 19
345 7 9
362 12 21
45 4 22
499 5 17
98 5 22
344 13 6
435 5 0
449 2 28
270 3 13
475 5 22
5 3 2
129 11 5
376 7 22
459 3 25
481 2 9
355 13 24
202 1 6
323 6 10
113 6 26
179 2 3
74 6 21
273 6 5
125 4 2
471 0 10
277 3 26
410 2 13
152 0 16
373 1 12
442 15 10
344 3 4
38 10 4
460 11 9
361 10 17
372 14 7
12 13 28
101 6 28
269 0 10
9 14 7
368 7 11
103 15 26
330 6 26
280 10 5
411 14 15
385 4 26
108 3 23
325 7 20
43 15 20
21 5 3
498 12 15
468 12 21
18 5 9
125 0 24
165 4 14
45 6 2
470 6 4
195 3 13
205 16 13
406 6 15
492 6 27
126 15 12
334 12 21
123 14 18
147 6 13
257 5 17
58 15 8
86 11 5
411 15 7
413 6 20
395 12 10
248 14 28
183 15 26
66 14 5
333 14 5
458 11 16
125 10 20
315 3 20
367 11 6
411 15 17
214 9 14
63 14 20
29 1 15
379 2 21
3 14 23
342 13 2
17 4 18
9 5 18
239 13 6
411 11 4
81 2 18
110 9 14
90 16 4
335 1 20
23 1 20
466 2 15
352 7 3
411 0 8
227 6 3
332 0 6
172 0 9
403 12 11
300 14 10
405 14 27
383 14 3
205 4 11
32 4 4
198 16 17
245 10 18
139 3 24
471 4 5
329 8 13
446 12 15
257 13 15
73 1 11
418 16 23
391 5 24
114 15 7
5 5 6
354 12 22
397 5 20
113 0 13
270 8 0
372 13 1
62 15 5
158 15 14
7 1 7
458 6 10
188 4 4
450 14 2
382 5 3
257 1 28
263 15 26
421 7 23
162 4 12
270 6 24
139 2 21
394 8 14
156 0 13
259 13 16
155 12 26
207 7 3
341 4 2
387 14 25
107 4 12
135 0 14
134 15 16
268 9 9
48 9 25
107 12 28
357 13 25
220 10 16
69 5 4
307 16 22
114 10 25
113 15 12
313 9 18
390 15 21
380 13 14
379 2 9
103 8 6
161 2 14
265 4 18
330 1 5
194 14 20
198 9 23
9 6 6
79 7 20
283 3 20
16 0 24
409 5 18
472 0 4
30 16 13
6 6 1
1 1 6
86 9 7
477 0 13
488 2 10
442 16 23
434 10 21
375 11 8
370 4 25
153 10 24
189 7 11
46 13 10
2 3 26
430 12 11
321 6 11
37 14 10
456 0 27
342 5 17
204 12 14
460 15 20
89 1 2
347 16 9
341 10 15
13 7 8
352 13 13
221 1 28
12 7 23
315 2 3
461 6 4
473 2 0
237 5 19
333 16 19
152 15 21
74 16 1
126 5 22
250 1 18
363 3 23
455 16 6
240 16 14
315 4 13
335 9 25
323 3 25
289 0 28
282 8 8
217 9 1
16 15 18
57 8 7
217 14 22
416 6 11
192 13 23
103 8 18
37 6 20
35 3 3
321 10 8
399 6 20
304 9 8
379 12 25
29 15 16
194 4 19
395 12 9
125 2 17
6 1 21
25 16 25
317 7 14
395 0 27
286 7 3
399 10 8
37 12 19
67 16 10
356 15 7
328 13 3
349 3 18
317 5 26
150 8 9
493 14 5
397 10 4
479 14 22
140 1 10
452 3 21
125 5 22
461 9 24
332 6 11
444 12 9
24 15 1
60 14 25
110 7 23
432 3 12
194 12 5
162 15 12
17 11 10
197 3 3
350 4 25
416 16 20
144 12 24
375 0 2
24 15 5
119 3 3
465 13 2
494 0 15
360 5 26
164 10 13
55 16 18
166 3 0
496 14 3
14 2 4
267 0 4
221 11 6
173 3 8
323 2 2
53 14 6
207 1 4
322 16 17
415 7 23
265 3 23
287 10 23
26 11 6
481 12 15
363 2 16
192 6 13
348 10 14
464 9 14
119 0 10
37 2 6
168 14 14
245 11 11
497 4 3
400 4 1
283 13 17
340 5 7
38 7 16
196 16 26
155 4 14
474 0 13
189 10 14
36 14 20
317 14 2
5 9 24
159 12 26
336 13 16
56 13 10
290 7 9
478 8 22
94 8 9
158 9 2
236 4 11
95 7 15
389 7 7
62 0 12
373 4 0
454 9 16
247 1 16
469 7 18
432 12 21
121 13 2
177 4 9
4 2 4
35 1 27
154 11 5
280 1 3
215 8 26
206 6 1
36 15 10
483 14 20
275 4 7
78 10 16
122 11 6
46 4 20
408 7 20
254 11 11
165 1 18
148 14 26
159 11 3
431 15 6
117 3 7
453 8 17
272 8 10
14 7 10
29 4 2
201 4 13
66 7 16
70 6 9
485 14 5
488 15 13
301 12 28
96 5 24
161 9 20
22 5 28
177 7 28
214 1 3
179 13 16
268 10 3
228 2 23
499 15 25
91 9 8
30 2 24
484 0 18
313 6 25
443 1 17
119 6 16
409 0 2
108 12 10
472 1 1
411 0 6
255 12 15
304 11 28
148 15 23
197 13 23
94 3 4
473 16 2
373 15 3
372 3 1
385 7 6
163 10 7
284 6 1
127 10 0
123 7 26
368 3 19
229 4 27
425 6 3
166 10 8
219 11 27
113 1 16
185 13 12
21 14 13
133 10 18
437 14 9
207 0 2
462 9 26
273 15 11
469 4 18
3 5 24
494 9 9
294 8 12
120 5 11
326 0 23
285 6 25
475 1 3
224 4 13
308 14 8
339 16 15
467 15 18
39 10 10
244 6 11
280 14 22
0 2 13
407 14 3
194 1 28
259 15 19
43 14 7
165 9 2
185 0 24
120 6 20
496 16 27
474 14 8
424 0 27
80 10 13
156 11 28
409 4 12
79 14 27
302 15 28
312 5 0
243 10 23
263 5 1
379 3 11
424 13 12
1 12 14
38 15 3
350 14 14
17 8 16
478 10 28
338 13 28
15 0 3
485 14 19
35 8 16
354 11 19
426 8 6
190 10 16
134 3 21
41 7 4
67 13 15
300 11 22
161 7 28
43 7 16
348 15 27
495 0 28
256 4 20
448 11 28
181 5 24
247 7 4
442 5 20
407 14 19
11 3 12
40 6 16
34 1 22
286 15 22
319 12 8
494 3 9
358 0 22
137 2 28
218 15 1
11 5 17
15 5 27
411 9 6
416 7 26
149 9 15
475 16 18
436 2 22
413 6 7
95 5 0
473 10 16
338 1 12
446 5 19
199 15 13
263 7 3
189 0 26
324 0 27
178 3 9
429 0 16
290 10 14
389 12 3
220 11 1
76 9 7
147 4 11
11 13 18
325 7 18
339 12 18
278 12 18
107 3 27
380 1 7
287 2 6
159 13 12
320 0 8
47 0 28
421 3 25
219 10 27
128 2 10
214 4 5
72 2 14
418 11 10
244 12 9
340 1 6
158 10 15
79 9 17
335 15 8
183 11 23
364 11 13
255 13 25
186 4 26
13 11 17
442 14 16
53 9 25
58 9 6
19 7 4
450 6 11
450 1 23
137 4 16
295 4 25
380 14 22
268 12 6
75 0 7
342 11 13
233 12 11
86 3 22
252 5 8
221 5 22
256 1 0
26 4 15
24 1 12
65 8 5
143 6 5
425 1 26
337 13 16
302 5 12
152 14 28
76 9 17
211 8 12
80 14 9
213 12 20
321 1 17
237 13 5
475 15 25
218 0 2
410 15 1
331 6 16
224 3 20
306 7 11
163 9 17
139 2 0
333 6 19
106 1 26
102 16 4
96 1 0
23 0 10
494 15 12
345 6 17
273 6 5
139 14 13
57 7 13
167 8 0
267 15 14
223 16 23
103 16 23
275 4 16
23 16 22
122 1 21
140 7 14
461 1 7
89 6 6
99 1 22
408 12 28
412 14 16
443 5 9
48 5 16
157 11 12
106 10 13
141 8 0
46 11 14
485 3 18
326 10 0
181 2 10
80 14 11
195 5 1
448 13 2
81 9 0
449 16 12
220 3 2
306 9 21
306 11 14
413 5 28
338 8 5
44 15 21
308 5 11
341 14 27
472 3 15
483 15 10
49 16 14
194 15 8
38 9 2
187 4 13
26 3 17
331 16 0
400 5 1
495 6 14
435 7 4
225 8 15
137 12 20
455 9 3
208 7 26
328 15 27
433 5 17
178 4 6
339 5 21
437 5 8
47 13 17
294 11 19
478 1 0
28 5 11
412 15 18
288 10 9
439 2 22
163 9 15
89 4 26
132 15 22
389 14 11
203 12 3
370 6 17
259 13 1
73 6 28
173 16 26
486 12 0
28 8 5
115 0 17
252 14 0
489 9 8
488 7 11
6 1 16
3 0 28
10 14 23
341 2 13
43 4 27
47 4 5
196 5 25
150 8 1
107 10 0
62 15 14
291 12 7
449 5 16
276 11 20
52 9 1
422 8 28
52 12 20
424 7 25
18 8 24
277 10 8
477 9 15
38 15 8
229 5 13
19 16 11
7 10 1
170 2 4
469 0 14
351 13 24
76 4 8
490 6 2
220 16 26
331 3 16
249 5 15
116 16 23
390 10 14
108 7 14
220 9 15
446 3 12
314 9 27
421 14 0
372 3 5
389 3 20
369 7 28
285 0 0
41 10 13
5 13 20
195 1 10
454 4 16
308 11 15
175 15 23
114 2 26
346 1 20
193 11 2
76 14 6
469 13 23
241 2 8
329 15 21
327 4 19
252 6 21
227 13 17
246 6 21
323 0 28
474 6 0
428 6 11
83 9 11
388 8 6
402 0 2
237 11 11
116 10 22
5 3 27
371 13 16
356 7 22
164 4 28
7 7 2
32 5 20
108 7 7
20 13 2
230 2 18
14 0 12
66 14 12
207 9 20
272 6 24
94 8 6
215 16 11
466 11 25
109 13 24
108 9 16
462 7 23
19 6 1
447 13 25
449 15 6
435 1 13
273 14 15
325 4 1
139 14 20
139 12 25
243 7 23
107 11 12
61 1 4
179 9 25
126 0 6
97 4 19
92 5 2
354 14 26
47 7 18
192 13 2
481 6 12
71 5 19
155 0 3
57 16 0
448 7 14
162 7 4
348 0 12
460 7 11
111 12 16
280 7 13
50 12 28
36 15 8
461 8 24
208 2 15
69 7 24
345 2 23
245 2 13
21 3 3
210 13 17
248 11 3
220 2 15
171 10 19
424 7 22
225 1 5
397 13 13
196 13 5
414 0 13
389 0 5
486 15 5
365 10 8
233 8 2
95 13 10
406 3 24
208 1 6
35 16 8
132 14 11
320 3 26
3 13 28
275 1 3
146 5 2
323 1 6
416 3 22
273 14 27
41 2 3
479 11 11
108 12 1
166 10 20
251 11 6
82 1 23
259 1 12
432 9 27
381 5 25
106 13 7
83 9 28
267 11 19
356 16 14
449 2 4
23 15 12
218 9 15
336 4 15
195 8 3
444 7 25
132 3 0
276 5 7
252 15 16
281 7 9
70 3 11
139 11 5
335 16 5
199 1 19
478 5 13
402 14 21
398 15 21
472 0 3
31 7 24
101 6 8
243 9 16
390 9 4
190 7 26
310 16 16
161 6 17
148 14 19
135 12 16
52 9 1
70 0 18
288 16 17
359 10 2
279 5 15
263 2 25
374 1 14
343 5 28
184 9 3
491 9 24
247 16 18
348 2 25
212 2 24
226 1 1
279 7 16
491 13 4
301 15 24
83 4 1
212 1 16
390 10 13
463 9 13
12 7 5
274 3 0
289 16 6
479 6 8
470 15 9
386 1 17
219 3 17
80 12 0
441 3 27
417 13 12
334 3 14
129 4 7
265 1 21
47 8 27
232 3 23
438 11 20
393 0 14
437 6 1
166 12 27
465 5 28
282 11 27
29 16 20
180 0 27
292 6 24
288 16 18
416 6 0
349 13 10
380 4 21
33 6 7
355 0 16
391 8 9
230 7 14
346 3 26
124 15 25
86 5 6
229 14 0
7 13 11
28 13 8
25 4 18
33 13 12
137 7 26
17 11 16
365 13 22
20 10 2
230 0 17
475 6 28
364 13 0
439 3 18
402 1 10
379 10 21
135 15 28
3 15 12
106 16 18
149 1 7
124 6 4
323 2 22
158 8 16
133 13 26
13 8 24
177 13 3
39 8 20
294 12 6
306 13 16
267 6 6
92 13 21
303 1 26
28 3 12
193 4 26
334 12 0
351 2 6
76 16 17
54 3 10
224 5 13
129 6 11
383 13 13
169 2 2
384 10 16
38 9 6
177 4 2
53 13 2
357 9 7
342 4 24
266 10 6
410 10 10
137 11 21
69 1 15
370 11 9
20 12 22
315 0 0
100 7 0
176 9 10
34 2 8
338 10 16
45 8 17
406 13 27
302 13 10
449 11 23
66 6 4
292 0 28
3 1 20
65 7 3
491 9 10
35 9 27
446 16 2
432 14 12
158 1 12
366 9 17
62 15 20
31 8 27
53 2 24
39 16 18
216 14 2
338 14 7
447 11 19
148 5 9
87 9 2
178 9 23
348 11 24
302 8 28
18 10 19
495 7 0
210 6 5
349 11 21
329 3 14
50 10 0
476 0 10
405 5 14
227 10 22
122 11 21
145 5 14
128 15 15
78 12 20
447 16 7
185 10 26
259 3 23
421 7 17
253 10 15
238 4 17
109 11 9
223 2 14
355 2 10
189 1 14
264 10 17
26 8 24
429 7 26
288 16 5
438 5 12
223 12 8
167 10 27
150 10 17
3 4 11
362 7 3
190 7 14
84 0 24
364 12 25
481 4 25
177 0 11
307 13 20
466 9 15
98 10 13
326 9 12
250 0 19
352 11 5
129 4 18
359 13 20
271 13 0
303 1 3
108 0 14
432 10 12
228 10 2
230 16 19
215 12 21
427 15 13
468 11 14
110 6 4
247 9 22
224 15 2
437 16 9
366 7 5
298 1 5
176 2 28
240 12 9
249 5 17
13 13 10
152 1 6
71 16 15
373 15 16
447 0 17
104 6 7
110 8 15
195 5 17
135 2 21
284 0 7
66 9 3
354 13 19
154 16 19
313 11 7
191 9 27
415 5 16
51 5 7
476 9 16
215 2 13
167 6 23
140 13 26
198 15 2
260 13 19
280 0 22
306 5 14
323 15 3
444 4 20
228 5 22
79 6 14
408 13 8
484 12 15
10 0 13
346 11 10
390 2 28
245 16 8
348 10 21
225 9 20
98 0 5
307 10 4
142 10 14
223 1 1
223 2 28
255 9 8
92 8 5
441 11 13
454 10 11
486 9 2
39 0 17
205 15 25
147 11 10
10 1 17
176 2 23
139 14 6
1 2 4
290 11 14
425 10 3
295 16 23
335 1 18
335 4 25
395 4 27
125 6 8
199 10 26
351 7 26
454 10 16
149 0 22
171 14 8
405 5 10
83 5 7
350 6 8
311 0 1
174 15 17
305 1 11
410 2 2
383 14 19
457 11 9
95 11 11
66 6 2
59 0 9
301 5 24
315 2 13
442 11 5
466 15 4
153 16 20
336 11 25
392 13 28
54 6 23
133 5 26
139 12 6
468 0 21
376 5 22
111 2 6
306 5 24
280 10 2
18 14 18
409 12 4
443 7 8
125 1 1
19 1 18
81 5 10
190 13 0
396 6 7
276 5 19
335 14 11
126 13 16
409 8 20
9 4 27
286 1 6
463 16 15
396 14 2
38 12 21
379 7 20
77 11 3
45 10 19
211 8 1
409 9 9
45 10 4
119 15 11
457 4 9
216 2 17
461 6 7
246 16 15
71 6 27
250 12 26
471 3 7
182 9 28
466 3 20
329 6 1
33 10 20
390 0 7
218 5 13
26 10 7
102 0 27
478 13 17
409 13 6
268 5 20
492 3 20
97 0 28
354 8 18
334 14 25
365 12 9
84 13 12
436 11 2
68 8 9
357 8 9
215 13 14
420 10 5
271 15 9
21 11 24
78 1 18
192 3 0
317 15 18
377 0 23
212 10 17
53 5 1
208 12 26
468 5 10
253 10 11
280 9 5
384 4 14
479 6 20
476 5 4
308 9 28
219 3 9
74 3 28
248 3 6
10 0 23
303 11 5
237 4 19
13 5 6
178 13 1
169 14 27
42 16 1
76 11 17
429 4 12
317 0 9
378 10 18
63 8 16
387 11 13
458 6 24
304 16 2
66 3 23
125 8 13
66 3 24
317 10 17
114 11 16
460 1 9
417 10 2
449 13 28
208 1 7
325 5 19
447 4 12
228 12 28
327 10 7
86 8 10
370 4 5
180 10 2
398 13 28
260 7 25
121 15 3
139 7 18
362 8 24
252 8 26
338 9 25
304 6 14
103 0 14
324 5 13
174 12 12
62 12 9
116 1 14
162 15 23
414 7 13
253 10 3
421 15 0
5 5 9
445 14 14
158 9 19
363 5 8
441 12 12
285 10 3
133 7 11
48 0 27
103 1 12
496 3 26
423 13 26
302 9 22
109 3 19
410 3 21
313 15 6
160 15 17
224 5 23
253 7 12
420 9 0
14 7 17
351 16 9
361 6 1
31 6 25
189 2 12
64 12 14
292 4 15
25 12 12
316 3 15
57 0 26
313 1 0
46 2 5
17 0 7
462 8 11
286 5 15
219 10 10
35 7 22
151 10 9
196 10 13
313 14 9
66 8 8
246 12 10
106 1 0
404 9 20
175 0 17
190 8 24
0 13 8
189 12 10
303 7 26
350 12 9
84 4 15
250 15 14
0 8 10
260 11 20
235 6 17
175 3 1
144 5 6
224 16 15
424 4 12
78 4 21
17 6 21
140 4 12
52 4 19
185 1 14
269 13 15
11 14 18
275 11 12
268 3 6
369 10 7
253 13 14
13 7 12
348 3 4
342 8 16
20 11 28
457 11 28
203 0 9
132 16 9
401 11 19
28 1 10
342 3 14
136 8 17
468 11 4
349 13 13
243 5 0
18 15 5
271 3 27
437 7 15
257 9 9
68 11 3
10 11 5
424 5 5
228 1 26
490 8 22
234 10 25
256 8 25
489 5 9
130 15 22
48 0 3
447 5 6
16 15 1
271 16 7
420 12 20
72 9 6
171 8 18
246 13 15
325 7 15
329 0 0
51 1 13
274 10 7
72 12 27
106 3 27
128 7 19
9 13 9
291 14 6
135 1 22
458 16 24
429 4 12
185 2 8
417 4 18
368 1 14
350 3 25
263 15 20
248 3 23
177 13 6
416 8 2
425 7 19
277 5 16
98 15 27
95 7 24
353 5 2
190 4 16
121 1 0
307 4 9
330 14 5
189 3 22
283 5 5
436 1 9
191 16 23
104 16 14
372 9 17
118 2 12
289 1 5
74 13 6
223 14 26
307 4 20
416 14 15
380 11 19
400 8 11
258 16 15
309 3 11
104 2 16
170 0 27
169 13 18
456 0 28
453 10 13
321 0 23
393 9 21
52 14 3
193 11 24
474 16 18
193 14 17
89 1 26
244 0 20
184 4 13
209 0 10
169 9 15
155 8 26
256 0 17
360 0 18
284 9 9
265 10 24
285 6 28
91 0 14
398 15 28
0 9 23
122 16 6
458 5 8
320 1 9
375 8 26
18 0 13
193 2 6
459 3 9
400 5 22
396 4 14
493 4 28
194 12 15
200 4 9
255 5 17
432 13 17
216 7 12
310 12 4
396 0 19
497 14 24
300 6 3
200 11 10
254 9 0
375 5 11
132 8 20
237 2 6
233 11 7
256 0 15
399 13 3
397 13 15
107 4 17
37 14 28
2 12 19
175 10 16
141 9 20
427 12 17
367 14 27
261 2 24
209 4 1
88 5 12
458 16 12
188 12 16
348 8 17
76 5 1
216 16 17
249 14 21
265 2 4
459 10 4
271 5 19
158 16 11
468 11 13
116 13 9
415 1 9
499 12 28
323 10 16
363 13 20
423 4 3
179 13 6
426 0 2
149 10 17
468 9 28
187 9 5
348 15 8
214 3 25
461 15 15
119 4 22
417 12 12
218 12 3
299 2 23
32 12 9
313 1 13
460 14 5
139 7 18
324 0 1
400 1 1
466 8 8
394 1 28
462 3 0
334 0 27
313 10 18
335 6 24
495 0 19
110 13 7
199 4 21
244 15 10
437 3 13
330 5 9
398 15 21
250 10 13
203 12 5
118 9 12
354 15 22
54 3 8
423 16 12
213 1 16
293 0 3
393 2 23
79 1 28
407 9 13
374 12 7
245 15 16
32 12 26
115 0 6
490 10 25
340 10 1
144 12 5
493 0 10
497 5 21
232 14 2
303 16 18
142 5 3
248 6 27
277 15 22
305 15 13
65 7 12
434 4 20
481 8 3
157 13 10
158 3 18
368 11 5
333 6 28
5 1 5
163 5 6
475 2 15
350 4 3
495 16 0
104 5 21
360 5 4
176 15 13
27 16 0
389 8 27
479 14 12
215 14 27
457 4 18
348 0 4
23 5 28
407 10 9
456 0 23
142 2 10
291 2 22
367 2 2
338 0 3
62 7 18
431 12 21
230 14 7
300 14 16
394 13 9
49 2 24
203 2 20
159 9 22
136 3 8
326 11 25
397 7 3
260 11 6
484 5 26
405 7 23
187 10 2
394 9 21
117 5 24
414 1 6
442 1 15
163 16 4
458 2 28
154 5 27
101 8 25
356 16 3
187 9 9
69 0 6
197 10 13
50 16 12
431 14 16
263 2 9
68 5 20
233 1 1
164 10 5
444 10 9
80 11 27
417 5 2
480 6 11
309 12 22
369 2 9
289 1 11
39 10 5
488 3 25
175 11 25
117 3 1
76 0 12
327 10 27
25 9 14
213 15 14
45 9 23
369 11 8
85 5 23
412 8 26
34 4 21
60 15 2
179 5 11
128 15 18
255 5 2
301 12 15
72 14 23
187 3 16
13 5 25
112 9 20
239 1 8
258 0 3
211 3 7
282 1 21
474 8 10
321 2 14
27 13 27
19 3 26
320 8 9
250 8 13
85 5 16
234 3 13
410 3 17
204 16 7
2 13 7
212 10 21
459 9 10
146 0 8
373 8 4
52 8 28
253 10 2
427 3 4
355 15 9
396 12 2
107 7 18
24 12 27
118 12 2
57 14 0
401 11 3
110 6 12
114 8 23
331 6 21
414 5 25
283 11 2
163 7 2
355 7 21
316 16 27
401 5 17
58 15 13
25 1 22
283 1 6
91 7 24
440 9 27
109 5 4
350 2 27
125 3 8
397 7 10
320 1 14
215 10 6
489 0 4
286 11 8
206 0 18
354 13 26
86 16 3
478 4 28
401 5 4
428 15 26
146 11 13
290 7 3
338 8 0
63 8 17
33 13 3
27 14 8
200 9 17
262 7 4
279 14 23
177 6 19
488 16 21
265 5 1
276 2 14
415 14 10
209 7 23
364 11 18
218 0 27
215 1 1
322 11 16
253 11 1
460 14 11
466 13 6
200 11 25
152 15 9
140 15 4
159 7 10
486 16 7
54 0 25
496 1 8
283 12 23
353 9 12
64 10 21
450 4 4
228 12 11
309 9 1
445 12 23
152 6 17
118 12 25
286 14 0
84 0 12
319 7 4
101 4 22
417 3 26
243 7 23
289 3 18
264 13 1
493 8 9
55 11 10
384 0 22
463 0 26
244 1 17
384 0 11
264 8 18
484 2 25
191 16 3
265 16 16
98 15 16
68 3 7
461 3 18
276 4 10
489 14 15
468 16 1
70 12 28
324 4 19
240 13 14
334 3 7
301 6 24
440 0 18
136 1 17
322 1 16
448 16 5
315 0 17
79 3 5
482 2 27
294 12 2
426 10 11
10 4 22
88 4 28
340 0 19
228 9 7
196 10 26
187 0 24
413 2 10
15 10 26
73 12 27
297 10 24
421 4 22
177 11 12
463 2 19
279 2 18
117 11 5
200 14 18
122 1 1
54 13 27
406 9 26
396 6 12
173 16 19
459 0 13
307 1 9
449 0 13
131 7 19
145 10 26
334 10 18
20 12 8
334 3 26
61 0 14
187 7 22
248 14 22
236 7 28
191 14 20
249 4 3
139 7 13
113 7 14
333 4 10
30 16 2
427 14 23
394 11 2
321 0 4
305 14 0
147 4 2
438 11 23
256 11 27
351 7 2
266 15 27
182 12 8
378 3 19
258 1 5
354 4 27
260 14 9
395 12 25
485 4 19
383 6 28
260 14 6
163 11 27
378 2 12
399 13 20
464 3 14
274 15 13
74 3 8
403 13 24
492 2 21
199 9 18
261 10 27
429 5 4
443 13 7
291 2 9
459 4 10
409 4 24
216 6 18
42 12 11
50 16 7
65 4 10
326 12 11
159 16 11
474 13 4
170 15 9
180 16 5
103 6 15
59 14 22
152 2 6
359 6 21
381 5 21
156 6 6
158 15 10
124 6 15
22 5 6
307 16 3
285 2 21
447 3 5
252 13 20
350 1 16
341 7 11
26 16 21
57 5 9
455 16 7
118 2 17
349 5 14
398 12 23
229 8 22
256 6 28
0 9 26
15 0 17
151 11 17
456 8 18
33 8 28
342 1 27
214 1 28
366 1 21
354 7 24
207 13 22
283 9 17
130 16 10
183 10 22
102 4 14
307 5 13
200 9 0
298 15 17
438 7 24
134 6 19
142 1 25
364 2 7
324 8 24
323 4 7
271 9 0
315 14 3
30 8 7
446 12 7
111 8 11
342 5 4
437 8 4
33 11 7
273 16 22
187 12 6
369 13 10
390 16 11
477 4 0
66 2 3
354 5 8
210 14 24
67 3 2
169 13 21
492 1 19
442 10 14
7 11 21
296 7 24
188 8 26
88 13 6
442 3 26
335 3 10
200 7 11
164 8 12
70 3 8
399 15 4
10 15 4
215 2 20
158 7 10
64 14 7
204 10 0
394 9 28
195 14 2
288 10 17
135 5 28
228 9 27
271 11 28
192 3 17
299 10 24
342 10 16
415 15 6
33 15 15
441 10 28
17 13 18
243 9 3
318 2 22
78 1 14
87 9 8
388 14 22
113 1 27
213 7 28
312 0 11
324 14 9
265 8 15
163 10 0
487 7 9
297 6 21
335 9 7
29 14 24
163 2 28
226 16 23
201 7 26
484 4 3
493 8 15
41 10 12
402 7 28
165 8 4
335 7 3
71 5 24
408 1 26
74 12 16
367 6 13
195 7 17
144 16 28
42 0 7
102 11 2
121 0 12
217 13 0
406 14 17
308 7 22
259 16 0
400 5 19
199 13 27
457 15 4
295 12 27
94 2 18
256 12 7
486 1 19
189 16 19
58 16 4
293 0 23
216 16 26
458 8 21
382 5 3
98 5 4
478 1 24
202 16 10
251 9 24
144 15 25
39 5 8
499 15 0
204 1 25
31 4 21
116 16 26
370 16 5
211 10 6
294 9 4
349 7 15
188 2 17
11 4 0
239 9 8
235 12 19
490 6 6
276 8 6
109 16 10
167 0 24
311 15 23
303 0 1
476 8 10
331 5 5
241 8 4
56 3 13
412 2 19
340 6 25
92 2 10
492 7 8
92 0 20
124 1 26
113 12 26
255 5 13
136 12 15
190 13 3
391 4 14
426 14 0
79 14 28
31 13 2
128 16 17
147 0 6
26 2 12
54 4 2
186 16 1
72 7 15
158 11 26
37 3 17
334 4 7
210 7 8
357 11 0
247 8 1
336 12 10
353 14 0
392 3 26
481 13 4
83 15 25
417 4 25
187 14 25
413 3 3
126 8 22
138 0 4
333 8 9
243 14 18
94 15 7
184 9 15
150 12 23
300 2 17
89 9 20
396 11 21
194 14 14
339 6 21
291 5 2
466 9 28
266 11 20
427 4 13
117 1 1
497 6 20
65 15 24
421 0 7
424 9 3
23 7 5
297 0 28
166 4 14
343 9 14
178 1 14
142 14 3
186 2 7
476 7 6
333 3 5
118 14 17
227 9 14
316 11 0
157 9 21
8 5 20
188 0 23
346 0 21
160 10 13
138 1 18
47 4 22
446 15 12
413 12 5
427 8 26
59 0 0
311 2 17
285 8 14
235 16 6
93 14 5
240 12 24
111 8 0
182 0 12
134 14 5
280 1 26
390 6 24
231 12 16
61 11 5
311 12 12
191 0 11
435 1 18
482 14 17
316 11 4
94 0 5
400 10 24
489 11 16
174 8 28
112 12 13
125 4 12
349 9 9
452 9 23
157 6 4
2 6 6
273 10 28
319 8 24
253 15 12
396 8 13
498 13 15
275 15 21
322 1 27
349 14 4
90 10 11
72 12 15
464 6 7
53 2 1
461 10 27
301 7 28
333 10 20
406 14 11
228 15 8
228 13 23
280 11 11
49 7 21
197 6 22
131 8 10
96 13 25
421 12 8
319 13 18
470 3 13
292 11 28
12 1 5
158 16 26
381 13 1
0 3 4
84 12 1
482 8 22
75 11 15
168 13 7
291 7 24
252 16 10
401 9 18
396 11 16
221 0 9
372 1 0
388 7 2
334 16 15
40 7 4
227 11 28
271 1 21
229 0 24
15 16 8
131 12 5
89 5 17
311 12 28
335 16 2
447 16 24
79 2 0
332 10 5
267 10 12
253 6 19
235 14 4
212 9 10
317 16 16
82 0 8
481 16 7
366 16 16
176 9 25
345 11 25
89 12 12
386 14 12
370 7 9
207 6 28
42 1 4
428 10 17
157 3 10
305 1 18
220 13 10
224 6 9
327 7 3
296 14 23
357 6 20
307 1 25
195 0 11
397 7 12
397 16 8
127 14 15
212 8 27
135 13 7
456 2 3
400 10 8
218 12 14
239 2 11
254 13 16
115 16 27
9 4 9
132 16 2
487 14 8
283 1 0
11 16 21
194 9 4
242 1 27
112 3 11
464 9 17
37 15 11
183 0 23
440 4 14
162 0 18
169 10 15
359 5 4
366 1 10
418 14 12
72 4 21
108 6 18
144 10 0
29 9 3
314 2 22
164 7 19
44 5 6
170 9 1
457 15 28
187 7 6
497 13 9
248 7 17
140 13 5
71 2 7
470 12 12
376 6 3
353 5 28
13 6 4
132 8 21
272 4 24
28 5 23
424 6 22
28 13 14
473 6 27
206 6 0
440 2 20
57 15 19
433 2 8
160 12 20
352 2 3
216 13 22
136 7 13
495 8 5
455 0 10
171 1 0
44 6 2
339 8 7
408 10 25
358 2 0
270 6 19
395 4 12
330 3 13
425 6 14
29 0 12
232 4 3
489 9 14
471 16 24
29 2 18
333 3 15
57 1 1
144 10 18
82 7 21
8 12 4
34 2 3
293 6 26
368 2 4
465 7 20
64 11 17
5 0 19
363 1 8
386 9 24
6 16 23
459 7 28
126 4 22
47 7 12
214 2 24
172 8 9
215 15 6
90 14 1
156 6 15
341 3 22
142 15 17
220 11 12
78 16 20
84 7 4
427 15 16
208 7 0
67 4 16
41 15 15
395 7 19
197 15 6
1 7 8
401 7 0
15 13 8
460 0 20
476 1 13
40 7 18
189 0 14
357 10 23
439 16 26
110 16 2
40 6 7
371 9 9
384 0 18
3 4 22
353 11 22
248 6 20
82 4 7
279 3 23
460 16 22
350 1 15
443 11 18
241 2 3
487 12 4
495 16 8
255 11 12
477 3 20
3 3 10
171 11 11
123 1 17
329 4 4
226 5 25
109 3 17
109 11 8
339 7 27
85 1 14
374 7 5
165 16 20
383 2 13
47 10 22
212 4 3
80 13 20
301 2 17
250 7 20
52 2 9
309 2 27
487 12 6
102 2 28
158 2 6
139 14 24
479 4 0
143 13 3
65 13 7
311 9 14
282 4 16
76 4 3
70 12 23
319 7 22
208 13 18
13 2 24
142 3 11
233 5 17
209 15 21
91 3 2
274 4 1
28 15 19
244 8 26
255 9 22
403 7 17
21 10 6
407 9 2
125 8 9
150 13 24
136 6 17
109 16 0
471 13 23
280 0 16
359 12 28
272 10 21
477 5 27
373 13 4
348 3 1
107 2 0
73 1 0
347 4 2
309 1 26
165 12 12
252 7 24
82 7 3
359 14 13
485 5 13
410 15 26
52 7 28
229 0 14
282 15 17
380 9 0
434 10 28
287 1 4
253 4 3
432 16 18
365 7 2
473 15 19
179 7 26
173 12 0
79 6 19
388 0 0
166 16 4
378 11 16
320 16 18
372 14 23
451 15 2
405 0 4
33 13 18
56 5 10
354 15 15
6 1 12
470 6 0
497 10 0
70 8 23
425 1 4
462 9 28
99 12 25
114 2 24
341 8 4
250 1 22
204 11 3
378 12 12
305 3 13
371 5 20
298 15 16
356 12 7
468 6 0
243 5 27
459 14 4
239 5 9
15 2 4
198 3 21
251 10 24
204 8 26
341 8 20
351 14 19
442 0 13
337 0 9
132 7 4
312 0 20
492 2 15
258 16 23
141 6 18
373 10 5
439 4 9
149 2 20
79 11 12
426 5 12
394 4 3
5 6 13
149 1 26
497 13 1
5 6 4
51 0 4
396 16 8
406 9 16
358 15 0
393 5 16
160 8 0
183 12 22
422 9 3
104 8 11
41 5 18
493 2 19
272 3 21
60 1 9
425 9 22
466 12 18
423 7 24
476 6 24
223 14 15
427 13 10
266 7 9
212 8 19
124 16 3
161 1 1
209 8 23
33 2 26
266 4 15
481 0 1
233 16 23
168 5 5
371 9 12
468 8 24
240 15 4
82 12 3
6 0 6
399 2 22
143 10 16
58 3 0
252 4 1
494 15 8
316 2 14
269 0 2
216 9 23
240 2 14
132 2 26
169 3 14
390 16 0
174 13 4
425 13 20
136 13 11
65 11 25
131 13 18
374 13 23
458 15 14
45 8 20
98 11 5
388 12 21
331 12 1
108 12 25
421 10 26
238 10 8
217 2 23
241 16 14
252 3 25
274 7 18
480 0 28
304 12 5
248 2 15
215 2 15
394 14 28
433 4 22
151 10 13
100 14 15
205 12 6
71 11 18
5 15 20
142 5 8
70 6 15
193 0 13
395 8 15
317 7 21
314 7 0
365 10 21
219 1 11
193 9 28
91 7 9
440 16 11
118 13 12
66 8 24
127 14 15
299 12 10
332 2 13
161 8 16
364 2 8
187 3 26
353 0 16
228 14 27
477 7 19
285 11 27
392 2 0
17 11 10
296 6 15
335 7 3
292 8 14
243 0 24
359 4 11
211 8 13
140 4 8
248 12 11
402 2 20
485 14 28
465 2 22
225 3 14
231 11 3
151 11 21
22 0 16
482 16 5
59 9 20
290 11 16
315 8 23
340 5 6
480 3 20
103 6 11
88 7 17
392 0 4
426 9 19
333 1 0
188 5 0
482 9 10
37 12 16
259 8 12
307 15 8
376 16 18
13 7 7
37 3 8
219 9 20
221 16 15
155 15 1
308 4 8
290 10 17
29 14 11
407 16 8
112 8 3
133 8 19
33 10 12
339 0 11
269 13 15
413 10 27
386 1 23
158 6 23
23 10 20
449 9 13
314 16 11
428 5 19
352 13 27
350 5 22
449 1 9
319 13 1
498 8 2
90 8 3
176 10 0
345 13 6
360 4 14
11 14 13
2 14 1
142 1 9
65 6 21
399 12 20
17 2 28
494 15 14
108 1 15
387 7 15
197 5 2
427 8 20
116 0 5
64 4 16
383 11 26
311 7 25
387 6 20
303 15 10
428 14 9
38 10 8
9 2 20
443 4 26
102 2 5
485 7 8
452 8 13
71 5 22
485 12 0
63 1 17
197 1 0
303 2 10
204 9 27
317 15 17
40 0 1
58 10 14
485 13 13
133 16 16
386 6 5
462 5 6
123 3 1
251 0 22
424 12 4
152 2 11
94 4 27
408 3 12
234 6 9
334 5 19
174 0 4
52 1 28
494 16 27
140 11 14
18 14 13
201 4 15
67 16 20
384 10 21
322 10 26
141 10 12
377 15 26
491 1 26
285 9 19
276 13 16
139 12 18
488 0 0
220 9 3
93 11 0
73 4 0
42 3 10
302 4 25
289 3 6
417 15 18
203 7 6
37 10 26
282 0 24
140 11 18
94 15 27
199 1 2
394 13 0
398 10 10
436 13 23
65 14 8
189 5 10
398 2 26
414 14 1
448 12 1
499 1 10
458 7 1
23 5 21
105 7 6
363 11 17
171 2 22
141 16 26
268 4 15
182 3 10
229 0 11
218 15 28
136 6 8
39 15 2
52 6 8
98 2 0
310 5 12
264 8 8
17 3 10
81 14 27
269 3 7
415 5 13
212 1 28
15 13 11
120 8 5
34 12 0
237 9 0
276 12 14
471 16 9
78 14 1
228 15 9
153 14 21
391 13 28
135 3 6
390 3 10
278 9 28
85 7 4
94 0 7
449 15 1
338 4 27
485 1 9
102 12 8
69 9 17
481 15 26
121 5 7
251 9 21
391 4 23
396 4 8
249 2 11
61 16 6
492 15 25
216 14 21
331 11 28
459 0 5
165 14 19
1 15 13
101 8 18
76 12 7
73 2 17
172 10 28
64 11 5
302 10 12
433 6 24
424 8 1
404 3 11
166 4 6
17 7 16
226 6 19
407 13 4
255 3 19
397 12 7
192 4 21
120 6 15
463 12 26
453 16 7
180 1 4
102 4 16
48 1 6
325 14 16
150 13 1
243 8 4
37 5 3
93 4 27
398 7 5
247 15 16
195 2 14
94 8 21
431 1 5
16 9 13
372 7 11
425 0 10
360 13 6
276 15 19
168 13 4
281 14 5
332 16 18
427 1 15
499 9 26
437 12 25
113 4 7
222 10 1
241 1 25
271 13 13
99 16 9
489 0 7
291 9 23
373 14 4
129 12 22
264 12 21
478 16 4
408 5 15
109 7 1
298 1 9
401 13 18
15 12 18
76 4 1
48 14 20
384 7 16
166 6 22
470 3 6
374 5 9
372 6 11
6 2 4
488 14 24
295 4 12
213 15 6
363 13 3
24 13 27
283 4 21
393 12 14
194 3 18
345 7 11
190 1 3
427 12 23
397 15 4
245 7 8
42 2 5
213 11 17
15 9 26
59 5 14
49 12 3
313 2 13
14 16 20
62 1 0
303 7 17
212 1 28
401 8 8
365 9 10
271 7 18
263 6 14
116 7 23
76 14 16
315 13 15
132 5 3
226 1 22
116 11 7
68 13 3
198 12 0
89 0 10
182 16 12
177 6 17
459 0 22
277 4 18
495 11 25
478 9 26
161 10 5
170 13 13
105 8 17
362 1 20
459 7 0
260 10 23
115 6 23
159 14 0
54 11 11
339 8 2
340 3 17
29 15 22
381 6 28
336 15 13
43 4 8
464 13 26
43 2 5
251 6 10
492 10 21
113 7 0
307 15 18
188 9 17
223 0 13
300 1 3
111 4 5
189 8 19
30 14 15
197 15 20
157 3 2
120 16 23
298 10 23
261 6 12
270 2 17
57 10 27
444 15 22
163 12 24
360 6 24
186 7 28
354 11 24
50 6 17
428 0 14
398 9 18
309 11 14
132 10 24
172 9 0
354 16 1
55 16 7
180 2 12
416 14 10
447 9 17
252 16 18
176 14 8
153 14 0
193 3 25
196 16 7
453 8 25
168 11 21
214 3 25
330 4 17
314 4 25
302 8 9
103 12 12
154 3 12
222 16 4
56 9 11
96 7 19
315 6 20
294 2 6
350 14 0
65 4 7
248 16 13
441 1 26
387 13 21
27 3 14
376 9 8
149 10 27
198 13 2
431 1 3
7 14 23
481 10 16
46 4 15
152 2 2
179 4 18
41 1 19
28 14 12
235 10 19
342 12 2
246 13 16
309 10 27
33 9 20
385 3 27
382 10 2
60 11 0
51 6 26
128 6 3
52 15 22
300 11 23
393 16 7
60 7 21
234 13 4
461 6 13
365 9 8
184 4 7
303 5 26
111 15 10
383 11 18
487 9 14
0 11 10
425 14 19
489 1 2
169 11 23
437 11 2
77 15 4
383 15 27
384 13 18
382 8 27
394 10 4
5 4 18
378 8 3
158 6 11
203 14 15
340 1 1
33 4 25
138 14 10
445 1 7
234 4 2
447 6 18
450 14 14
257 4 25
127 9 25
311 8 21
99 6 15
330 6 7
248 7 13
462 12 13
370 0 11
8 10 24
440 3 5
127 9 18
487 9 12
171 2 27
398 5 16
478 0 6
125 10 1
127 2 11
228 5 23
270 10 26
4 12 19
311 15 13
387 10 11
437 14 6
424 5 10
244 7 12
145 9 19
155 6 15
201 15 28
328 8 20
369 3 28
4 6 21
121 6 27
159 12 14
44 5 4
488 16 27
133 0 27
195 7 13
72 2 27
297 10 1
131 11 4
209 5 5
497 9 5
320 16 3
298 10 21
104 5 16
470 8 15
31 15 8
130 15 0
293 16 8
345 10 24
25 13 5
344 14 27
442 7 24
464 3 6
65 4 27
38 0 11
54 12 27
280 15 12
170 15 4
73 5 7
427 3 17
115 6 26
355 16 16
280 5 0
216 4 10
464 1 5
301 16 2
218 2 17
394 1 8
392 14 19
318 6 21
332 8 21
73 12 15
170 6 21
129 9 11
0 4 28
246 14 25
463 13 3
94 3 12
45 2 25
146 5 20
461 11 20
129 3 20
472 2 15
53 1 20
11 5 3
222 8 18
250 12 8
480 6 21
397 4 4
33 7 25
139 11 21
314 1 20
79 9 10
220 9 10
149 8 1
112 15 28
274 5 21
247 10 9
363 7 10
368 12 1
455 11 9
65 8 24
480 0 21
188 14 13
397 13 0
156 7 22
45 10 27
468 9 19
83 0 22
92 3 5
472 16 26
236 12 10
377 2 16
350 12 2
93 4 26
10 8 19
499 5 28
284 8 5
71 2 22
96 2 21
469 16 23
244 1 21
168 3 0
412 8 14
313 13 7
483 1 16
458 14 24
11 6 21
434 5 27
116 16 10
215 1 20
158 16 2
207 11 10
497 11 14
338 10 13
366 15 24
434 15 2
43 2 17
267 9 17
494 12 11
477 2 7
117 16 13
19 1 23
88 11 22
460 6 4
245 0 13
42 3 3
279 10 9
96 9 10
38 3 9
267 9 13
204 4 8
289 10 5
336 7 23
310 0 27
495 5 26
313 11 18
193 2 25
444 6 14
51 2 24
473 15 16
483 16 6
51 6 22
409 7 23
286 15 0
484 12 13
425 0 8
145 8 26
361 3 2
469 10 3
384 0 2
400 5 3
241 13 13
425 3 6
302 4 19
204 4 7
150 4 18
160 11 11
289 4 24
432 2 12
163 3 17
188 13 12
362 14 23
331 0 27
469 14 6
385 4 1
99 3 11
189 15 15
22 5 24
63 0 3
352 3 14
348 9 7
489 13 21
215 4 12
281 2 10
365 10 20
28 4 7
311 12 6
21 12 10
292 5 4
75 3 7
154 3 16
495 8 18
112 12 9
414 0 20
434 4 21
446 7 26
63 5 0
457 10 23
231 2 26
435 2 13
138 16 22
258 8 25
350 8 17
140 7 5
230 4 21
443 13 25
5 14 12
450 6 12
472 2 12
328 3 16
468 9 12
437 6 23
492 10 24
153 3 7
466 9 1
449 5 23
374 2 12
462 12 24
176 11 27
162 12 20
298 7 13
294 13 20
356 9 2
83 9 17
408 13 8
482 4 13
230 0 11
84 7 13
120 11 1
460 14 24
382 14 12
215 13 26
171 16 6
134 10 0
56 14 17
140 6 25
382 12 24
465 8 0
348 14 24
163 5 8
174 8 9
62 4 19
450 5 2
459 3 21
53 2 7
205 4 10
180 8 13
230 7 7
384 10 17
314 3 9
192 15 16
143 8 10
383 2 1
59 16 18
373 13 23
14 7 15
419 16 20
375 7 14
59 2 24
354 6 14
306 11 6
310 1 16
327 16 27
497 7 24
404 15 22
239 10 20
249 6 27
162 4 1
495 11 28
108 6 19
106 5 3
420 5 9
474 14 16
4 15 7
213 8 15
186 0 26
76 12 1
455 10 24
91 8 17
434 1 10
444 11 27
4 7 27
386 12 18
15 4 4
491 1 11
227 14 8
40 7 22
35 3 3
126 4 26
469 16 25
332 14 26
405 6 20
29 8 5
228 2 5
68 12 22
281 13 14
313 13 11
216 9 10
289 12 24
259 5 20
2 10 28
268 16 21
12 11 1
286 13 28
405 11 27
377 16 24
126 14 13
396 2 14
81 11 14
284 12 27
219 15 23
3 6 12
205 16 9
149 5 22
200 12 14
89 11 23
296 1 10
479 0 25
235 5 2
279 13 3
362 16 23
84 11 26
127 1 19
392 9 3
176 2 11
3 9 15
396 2 21
200 13 24
475 8 6
404 7 4
449 15 4
247 3 24
63 4 4
159 0 6
333 13 12
208 12 27
352 16 26
349 14 1
221 14 22
373 2 26
68 1 22
143 12 13
377 15 25
10 10 14
422 1 18
60 8 18
488 10 4
432 2 28
194 3 2
314 0 18
371 13 19
259 0 15
312 4 25
489 14 3
181 4 8
479 2 2
106 7 6
497 9 27
393 2 5
19 12 10
70 14 13
337 5 1
417 13 14
198 6 7
65 9 2
315 10 4
381 13 26
17 2 26
48 2 16
35 3 24
196 9 16
410 7 0
11 15 25
52 7 22
164 11 2
164 10 3
448 13 24
244 12 2
19 2 8
369 7 5
312 14 4
52 11 23
401 6 13
372 8 12
12 7 5
393 3 11
401 9 8
337 9 14
159 13 22
142 2 5
427 9 23
139 3 8
376 14 10
244 0 22
292 9 6
440 11 20
121 13 19
92 13 14
2 6 6
425 12 25
82 4 11
494 5 13
411 13 3
306 13 3
361 12 17
105 7 18
470 4 3
304 4 17
240 11 28
402 10 14
477 5 8
484 2 23
1 11 9
334 16 20
320 4 10
397 10 0
349 11 10
454 16 23
352 14 7
144 3 15
147 8 0
440 14 18
158 1 22
89 2 11
277 6 7
49 7 22
91 7 7
60 11 21
71 8 5
166 0 9
85 8 26
29 1 23
392 13 19
230 14 10
391 14 27
369 13 23
46 15 16
462 16 13
472 8 4
403 0 24
355 8 6
432 12 28
458 2 8
118 2 6
339 9 23
121 4 16
157 14 6
497 9 20
64 6 17
275 13 21
268 9 2
89 9 22
364 9 23
461 2 3
34 5 22
36 14 6
256 8 17
374 6 9
242 15 11
404 6 26
482 8 5
33 15 19
55 10 16
308 11 27
268 12 2
194 16 9
326 13 21
415 5 5
470 11 8
356 16 1
139 3 24
68 8 9
453 15 22
427 11 12
474 16 3
370 2 17
131 11 0
193 14 21
485 16 23
217 8 28
246 9 21
402 12 24
44 12 22
365 2 5
75 14 21
350 16 0
291 13 25
275 14 23
397 1 25
32 11 11
89 9 0
75 7 16
147 12 17
8 2 16
378 6 21
123 11 17
352 11 28
281 3 10
68 4 11
268 2 17
14 16 0
90 1 23
227 2 5
36 13 8
294 13 25
173 16 13
451 2 7
97 5 28
408 8 25
153 7 14
414 13 25
485 4 14
338 14 3
330 7 28
240 2 18
175 11 4
26 15 8
319 2 6
455 14 17
237 2 27
387 3 19
35 0 24
390 16 6
433 2 1
85 11 17
229 13 4
58 0 25
219 2 8
136 11 8
331 9 20
134 9 1
259 4 26
36 7 26
36 11 18
281 13 22
179 2 16
240 12 28
156 0 14
228 2 28
413 8 11
428 12 12
421 15 6
92 0 3
112 11 1
135 5 20
497 13 9
82 2 3
228 14 13
437 0 20
150 1 3
341 14 28
484 16 0
15 13 17
88 2 3
315 1 25
97 4 13
43 13 23
152 0 12
140 2 11
223 0 16
466 5 15
131 9 28
207 9 27
227 12 9
370 9 26
137 12 27
135 11 15
1 4 15
256 9 13
52 4 21
57 11 4
190 15 20
176 4 5
240 4 6
207 10 6
292 3 16
282 7 0
285 6 8
456 12 24
244 8 7
5 5 5
197 0 18
54 13 13
213 15 1
170 15 14
93 10 17
450 14 14
443 3 27
493 16 1
54 3 17
204 11 19
145 1 5
38 10 20
412 1 27
130 16 20
19 9 13
326 10 22
407 2 18
414 1 27
140 3 10
407 1 25
236 1 2
108 9 13
59 9 19
362 7 27
171 11 26
486 16 21
101 5 4
276 7 5
25 0 17
415 9 20
448 8 1
405 12 17
383 12 6
487 15 27
251 14 20
344 10 2
146 0 9
296 6 7
105 15 11
134 5 17
33 0 21
374 15 1
378 13 2
400 4 13
351 11 20
414 15 27
491 15 8
191 9 4
430 4 5
30 6 24
365 3 22
361 1 23
278 12 7
461 10 5
409 16 26
424 12 25
99 12 18
196 14 8
499 3 28
465 14 25
489 2 7
176 15 23
74 13 23
287 13 21
203 13 23
321 0 23
60 0 8
128 15 7
39 16 4
265 15 4
474 16 19
393 4 27
6 3 28
310 10 24
198 9 8
452 5 2
68 16 17
231 3 18
3 1 4
230 3 13
360 5 14
184 11 16
79 15 4
385 5 28
441 9 21
112 1 11
383 2 0
27 14 10
225 0 22
142 8 9
327 15 12
50 13 9
399 8 11
119 11 10
363 7 25
277 15 6
221 8 24
28 0 24
234 0 23
219 15 1
258 16 20
185 14 23
202 7 15
421 6 0
213 12 14
211 15 6
262 10 27
443 7 9
132 7 6
420 8 26
428 7 26
182 16 27
422 2 2
368 16 27
317 6 14
350 11 3
185 12 22
471 1 22
387 13 10
60 14 6
73 6 22
168 7 10
310 4 28
84 16 12
418 7 16
288 9 25
65 9 26
480 4 13
71 13 9
368 11 9
0 12 22
411 11 13
488 5 9
298 14 15
195 1 16
98 11 27
210 15 12
317 4 12
113 16 11
478 13 16
55 12 13
481 13 1
143 5 18
265 4 20
409 5 27
361 2 5
247 14 15
228 16 1
165 7 9
361 16 24
82 3 9
141 0 17
486 15 2
157 10 22
57 0 8
468 8 15
156 11 14
392 10 0
437 5 2
475 13 21
459 6 21
390 8 28
217 6 14
102 5 17
104 10 4
259 7 11
118 2 9
29 4 8
377 1 0
405 11 17
175 8 2
10 0 23
295 2 14
81 15 18
34 4 27
171 0 20
187 1 15
233 2 0
172 16 14
91 1 20
233 13 6
21 5 19
387 2 1
115 16 25
129 14 2
32 6 27
57 12 3
459 1 20
170 5 7
305 13 19
243 0 24
319 3 2
159 10 2
434 1 27
379 8 23
291 16 21
181 1 2
140 8 3
395 8 5
47 10 26
413 15 12
292 6 24
254 14 18
345 5 15
255 3 18
49 5 10
496 13 21
71 3 18
192 9 26
340 9 15
23 13 11
116 14 2
433 16 28
102 12 3
478 16 21
50 8 24
485 12 8
255 9 6
184 11 10
162 14 14
460 1 3
61 8 26
257 0 2
46 15 13
17 10 27
127 14 26
109 16 6
80 11 3
486 1 23
423 0 5
207 9 13
209 7 28
337 2 25
335 1 5
41 11 21
140 5 26
284 2 18
379 0 4
429 9 10
112 6 3
429 4 16
331 0 10
369 7 21
78 3 7
6 14 25
171 0 22
292 11 8
245 12 17
359 1 4
326 2 24
195 2 4
35 9 2
472 0 17
362 16 1
259 11 3
165 2 17
449 1 8
384 16 25
167 0 27
169 12 2
484 14 21
6 2 20
492 5 10
302 12 0
489 14 17
428 14 19
107 3 8
404 6 16
174 7 12
228 13 5
243 4 15
416 13 15
475 10 17
141 0 17
409 11 23
355 0 9
389 8 0
207 1 24
20 15 18
223 16 17
376 15 4
284 13 2
228 0 17
390 7 4
98 11 16
74 15 15
37 10 17
163 15 2
441 10 20
412 13 12
444 2 20
363 2 2
332 10 3
203 0 15
448 7 27
336 11 25
29 4 24
6 2 5
409 11 10
498 2 23
166 2 5
418 15 23
356 13 11
83 11 3
474 13 15
496 15 20
475 7 13
427 3 17
214 15 5
105 16 8
113 11 15
233 14 16
481 4 23
208 4 3
305 4 3
385 3 0
174 0 2
224 12 2
388 6 16
3 16 8
49 5 8
206 3 15
462 3 28
67 3 18
387 9 24
238 1 7
27 0 5
51 14 19
437 13 26
41 14 20
284 1 0
133 13 14
443 12 11
436 5 14
193 15 12
189 14 27
145 8 13
409 16 18
32 15 6
375 12 9
308 15 0
172 15 23
280 12 19
253 5 16
439 5 18
217 0 1
330 8 3
35 1 17
482 8 14
6 9 18
116 10 14
124 13 12
401 2 17
49 5 18
379 8 23
289 0 10
197 13 20
252 14 3
444 14 27
411 16 27
14 1 0
46 2 1
453 4 18
373 3 1
136 1 22
430 12 2
186 10 16
288 0 26
274 4 0
184 7 24
178 12 5
381 9 27
192 6 25
131 4 21
486 6 16
485 8 0
336 12 6
466 11 28
92 3 8
203 15 9
250 1 13
277 16 6
32 0 6
442 12 16
193 10 21
14 15 18
484 6 28
136 15 26
6 6 5
299 16 2
167 3 28
108 2 15
380 16 14
72 12 2
21 14 18
134 10 13
319 10 10
216 6 13
277 16 0
408 10 20
218 4 7
413 3 4
144 15 5
230 10 24
84 1 25
118 8 4
455 7 20
360 13 20
79 0 1
152 5 28
259 13 10
106 15 8
150 0 23
57 7 4
456 8 27
350 13 17
192 1 9
463 12 24
200 14 22
318 16 0
257 6 15
348 5 24
425 1 26
59 10 15
477 7 19
211 10 15
474 5 16
181 12 9
13 3 10
272 3 24
414 0 15
55 12 25
404 6 24
479 5 27
294 10 19
308 15 17
398 13 26
184 4 22
170 6 12
34 15 18
393 3 20
9 6 1
386 5 6
311 15 2
300 3 20
32 14 28
216 16 10
217 14 7
238 8 15
46 8 2
80 16 7
148 9 16
83 12 22
281 13 20
203 14 8
410 16 12
67 13 23
90 3 3
181 1 5
132 0 23
183 16 11
238 11 15
53 0 4
213 6 23
332 5 25
50 10 26
124 8 18
102 7 24
241 3 19
292 4 3
369 4 26
389 13 6
325 5 23
312 13 2
408 13 26
237 3 25
265 14 17
51 13 11
147 5 11
389 6 0
236 11 27
205 10 17
313 4 0
38 14 11
316 6 20
394 7 23
245 11 15
31 0 2
231 7 9
379 5 16
394 3 10
459 2 18
240 14 4
423 1 2
158 3 10
339 5 20
68 4 2
87 13 10
263 7 24
201 2 7
418 0 15
322 8 10
51 10 9
35 11 5
243 11 26
373 13 1
144 0 18
154 11 15
51 10 4
128 10 8
91 10 15
188 14 8
166 15 23
167 8 2
220 10 10
3 2 15
482 3 26
399 10 25
52 1 27
20 15 17
371 0 15
285 3 13
250 12 2
482 9 3
41 14 22
295 2 9
202 15 27
370 15 17
251 4 17
339 7 26
473 12 19
296 3 17
426 14 21
66 0 10
470 11 19
308 0 16
333 12 19
45 0 21
295 12 21
185 9 9
113 13 8
439 2 22
401 1 14
413 5 7
77 6 21
451 9 20
254 2 5
159 13 1
303 1 20
419 9 11
383 6 22
202 0 12
210 7 24
55 7 11
265 6 14
374 1 5
387 12 16
490 6 4
163 10 6
217 8 10
91 1 3
342 0 20
149 14 1
177 9 21
460 3 5
231 15 20
139 2 23
270 10 22
103 3 19
219 9 0
446 4 18
303 14 6
351 15 6
326 16 6
434 13 15
339 10 27
87 14 28
365 16 2
1 6 3
224 16 1
195 13 3
492 14 16
255 6 1
127 16 11
291 12 17
475 15 25
340 14 25
159 0 7
25 9 4
305 15 22
31 12 21
270 1 19
365 1 24
424 0 10
319 13 18
240 4 18
410 11 19
437 10 19
329 6 17
211 7 14
382 0 18
326 12 17
63 16 27
334 14 20
109 0 13
295 4 2
57 3 5
219 8 5
386 14 6
4 12 7
181 0 8
18 1 22
270 1 3
73 2 8
443 5 23
72 10 17
476 1 6
370 1 13
259 9 19
214 6 12
147 14 9
204 7 16
300 15 17
394 7 0
425 7 13
201 11 26
143 12 20
480 7 7
359 10 18
219 9 6
69 5 19
147 13 21
317 4 4
333 7 6
497 16 12
454 8 27
177 12 20
14 13 4
144 9 12
282 4 19
232 11 19
254 15 21
145 6 16
461 7 15
336 10 6
28 3 3
479 4 26
43 2 14
450 0 4
102 12 15
188 14 12
266 8 9
391 11 7
312 7 2
473 13 4
430 1 22
188 14 8
77 3 24
414 4 4
492 2 20
90 10 10
25 5 3
145 6 17
319 4 27
377 5 26
251 14 16
481 4 28
192 1 15
289 15 0
318 0 8
78 5 17
231 3 27
457 2 3
289 5 15
377 13 13
76 6 19
396 1 25
136 0 10
153 12 4
268 0 24
215 3 23
75 15 15
176 13 24
394 4 4
339 6 9
421 14 2
62 1 7
198 5 2
147 16 0
246 9 1
59 4 16
475 9 4
76 15 24
219 12 20
102 12 24
197 9 20
351 9 19
125 9 7
129 9 17
428 12 21
127 1 18
204 2 19
249 0 14
250 2 8
461 15 23
72 13 1
496 2 1
488 5 19
148 1 6
95 9 0
15 13 3
206 15 22
97 8 18
232 4 22
155 5 23
29 2 20
20 15 6
484 7 18
86 10 1
491 4 28
359 0 27
191 14 0
137 16 4
230 11 23
488 16 25
78 10 1
241 15 23
475 14 2
348 14 1
43 10 24
440 8 13
393 11 11
317 1 3
334 14 17
54 5 5
495 14 25
213 6 14
357 15 3
252 8 4
421 10 1
484 2 5
11 2 22
369 3 12
40 13 19
239 15 3
53 12 15
441 4 7
454 0 8
407 11 23
121 7 24
70 4 4
82 12 7
458 14 24
185 13 15
338 14 20
158 13 1
193 15 28
292 0 0
123 3 19
76 7 13
298 16 24
131 6 24
296 9 26
170 0 26
428 5 6
34 8 19
398 14 7
103 13 21
255 8 14
184 3 3
27 6 3
203 10 12
495 13 12
409 1 0
279 1 14
180 14 10
105 13 21
57 9 3
230 2 10
302 8 26
419 8 9
115 13 3
50 0 14
219 5 16
143 2 0
288 2 27
488 13 20
261 15 6
252 2 16
467 3 1
65 7 17
148 16 13
449 3 21
52 9 22
460 15 9
194 2 7
478 7 2
292 1 16
196 6 18
184 4 18
197 0 18
385 2 24
338 8 0
262 13 14
463 9 11
225 14 25
68 7 18
262 10 26
482 10 28
306 8 20
102 8 10
58 7 2
420 9 5
411 2 2
68 16 14
126 7 12
185 4 7
350 10 28
44 1 7
144 5 23
421 12 17
121 5 11
142 16 17
67 4 2
374 12 16
11 6 1
79 12 10
251 2 28
429 13 28
264 6 6
368 12 16
327 2 7
222 7 5
78 1 13
334 16 15
130 9 0
368 13 9
310 1 4
314 9 2
151 14 20
473 16 11
395 11 13
22 8 20
60 6 26
219 10 4
122 12 14
174 3 26
4 2 4
427 3 26
12 10 24
97 2 5
13 2 12
153 14 0
189 16 27
188 11 18
433 8 20
461 2 0
250 6 1
183 14 20
479 6 7
187 1 16
267 9 24
344 13 22
95 5 1
81 13 0
174 2 20
295 5 0
438 5 24
385 14 6
430 10 10
355 9 28
437 9 15
6 14 12
464 9 15
335 3 25
496 5 0
71 14 5
22 7 10
425 14 24
32 7 24
281 11 24
200 10 6
368 15 23
177 10 18
94 11 11
16 12 9
294 3 12
76 2 28
422 2 26
51 8 3
184 2 7
367 16 22
106 7 20
283 11 21
59 10 11
30 4 10
96 0 13
369 8 21
137 4 12
419 10 25
383 1 22
264 6 20
285 14 7
435 0 12
325 4 21
187 1 26
270 10 18
406 12 20
177 14 14
50 11 25
388 5 24
364 16 14
228 4 11
132 15 7
214 8 6
44 15 5
88 2 2
364 4 23
309 10 22
49 12 24
288 12 1
235 0 16
377 1 28
257 6 23
481 6 13
458 4 13
460 4 25
150 4 8
160 11 11
150 1 2
407 14 10
408 14 3
429 13 15
406 5 2
458 13 24
188 14 23
497 8 22
281 7 20
438 7 22
182 13 23
180 13 20
309 12 13
137 15 24
130 1 26
320 16 12
316 11 13
124 8 2
124 5 25
172 5 8
410 9 13
340 11 5
135 4 19
410 0 8
162 13 18
441 1 3
340 13 8
57 1 9
103 9 22
498 14 2
449 7 22
235 15 7
294 14 25
284 10 1
342 9 19
281 2 21
362 12 3
485 15 16
467 13 12
409 1 6
0 7 23
335 3 7
67 16 21
173 1 13
67 5 21
252 0 5
439 1 19
182 12 11
45 16 25
218 10 20
31 0 16
79 2 26
241 8 28
251 8 5
340 0 1
460 5 11
231 14 14
436 7 25
160 10 17
23 16 26
191 7 18
134 11 8
397 10 19
354 13 25
365 9 15
81 3 12
260 3 19
397 6 14
54 15 5
233 11 0
267 0 9
267 11 16
137 16 5
336 6 6
156 5 12
191 13 27
254 16 13
322 4 15
373 15 8
6 1 3
406 13 0
252 2 1
479 5 4
238 9 17
362 6 23
165 1 2
400 6 28
429 2 7
379 11 9
306 3 20
113 16 24
10 1 4
360 6 6
336 16 5
443 5 15
120 15 20
217 14 1
244 12 0
300 5 10
428 11 16
317 5 7
329 15 23
312 13 25
98 3 14
26 10 21
203 1 27
395 7 15
215 5 10
466 10 20
445 3 0
494 4 28
56 5 3
270 0 21
111 9 21
282 8 21
273 7 23
190 6 0
461 13 6
276 1 23
131 6 21
85 2 6
377 3 6
447 8 15
99 12 7
414 8 25
79 1 21
9 0 24
208 11 19
494 5 24
352 11 27
205 8 1
219 0 15
402 10 2
157 1 11
49 13 22
251 13 18
37 3 6
78 8 22
82 8 4
171 10 10
463 1 18
226 7 3
340 11 26
165 5 7
302 6 14
317 10 28
358 15 11
4 8 20
57 0 14
278 11 20
154 2 2
198 14 21
364 11 7
359 3 2
260 5 27
313 14 20
318 12 5
347 10 12
496 13 24
361 1 5
128 5 22
115 11 2
316 3 4
314 8 21
472 10 2
359 3 3
156 14 3
392 11 16
82 15 14
487 7 7
367 0 28
433 15 21
167 11 21
277 13 21
423 6 28
238 13 0
453 9 3
21 9 20
225 12 7
443 10 10
208 14 22
12 3 16
450 14 22
82 12 3
271 13 12
344 12 5
1 16 22
123 13 4
203 5 26
132 16 3
282 9 18
394 16 8
339 5 3
379 14 24
79 1 3
448 2 9
104 1 11
335 16 5
35 2 7
9 6 27
109 6 8
338 11 1
250 4 10
316 1 18
166 7 16
218 1 2
234 6 28
248 2 11
463 16 24
9 13 11
4 6 19
302 7 11
304 10 1
317 11 21
303 12 6
58 6 23
401 11 20
307 3 14
474 12 11
442 4 19
363 8 1
433 14 27
219 15 5
191 12 11
140 7 18
118 9 9
39 12 14
54 14 3
291 3 24
242 9 22
314 2 25
413 10 14
109 10 7
424 10 0
85 12 5
84 6 12
211 0 28
178 3 25
239 9 13
241 7 24
362 2 13
200 2 5
417 3 26
485 12 12
417 3 9
103 12 1
81 9 0
217 7 21
387 12 0
105 12 5
331 2 21
132 8 14
258 14 21
258 16 16
138 5 6
206 11 15
327 14 17
444 9 8
344 11 26
261 8 21
437 0 0
496 11 24
350 7 0
230 5 26
109 0 2
416 12 2
75 12 25
443 8 21
219 10 0
293 2 5
383 7 26
332 6 10
470 6 4
144 13 28
286 8 11
92 0 18
36 9 4
39 13 6
379 6 1
476 9 24
401 14 6
479 7 15
78 6 8
497 3 3
8 14 10
121 16 27
347 0 9
466 9 5
491 9 18
99 15 2
243 8 2
390 1 18
364 0 3
270 12 10
224 0 0
410 10 23
175 7 9
374 3 10
277 13 14
49 9 13
268 4 25
206 16 11
86 4 14
206 9 14
394 15 16
25 2 3
37 11 18
420 16 3
63 13 27
54 10 25
16 10 18
67 13 3
156 3 4
52 2 26
70 3 2
289 9 10
402 6 16
45 14 15
127 15 26
65 16 11
9 7 26
457 15 20
87 16 22
461 4 28
304 8 2
494 12 2
244 1 16
222 13 28
414 0 17
237 1 2
96 4 18
498 3 24
104 7 0
70 14 10
243 3 10
119 0 7
31 12 23
160 16 22
195 2 6
460 1 18
313 5 22
332 13 13
38 12 10
45 4 13
401 8 16
331 9 25
16 14 24
203 0 7
390 1 1
60 8 1
238 12 7
170 3 20
46 4 28
28 6 25
327 11 24
188 14 19
406 3 17
358 1 20
447 1 19
256 5 4
472 5 9
326 1 17
293 13 14
334 8 6
132 6 2
43 15 9
228 2 11
397 13 6
67 15 11
499 8 17
390 5 21
397 13 22
18 7 9
315 5 10
221 11 4
285 5 27
426 11 5
204 2 5
476 15 21
381 12 4
86 4 25
205 14 19
418 16 10
16 5 4
60 13 24
452 4 24
18 3 7
478 9 12
233 13 0
308 15 24
94 14 19
423 0 1
31 5 0
348 1 14
478 10 25
47 15 10
426 15 26
294 9 25
390 10 9
436 5 12
478 4 11
123 1 0
350 9 28
114 11 24
319 13 1
205 14 26
63 9 7
482 10 15
59 3 21
444 5 18
360 12 17
410 2 18
270 14 5
27 1 28
379 15 5
411 15 10
294 9 1
3 16 15
314 5 28
437 1 20
259 2 11
48 14 26
173 5 7
451 13 12
316 6 1
391 7 10
112 7 2
71 8 6
220 9 16
497 2 0
57 1 20
202 0 13
28 10 6
249 9 28
407 5 21
187 16 28
277 0 5
459 9 5
292 12 8
152 14 7
170 14 24
204 2 6
432 16 24
321 3 15
385 6 12
79 5 27
311 8 13
230 7 10
282 0 13
87 2 15
474 12 5
364 0 22
376 6 12
41 4 9
399 12 11
393 13 2
88 5 24
425 8 0
9 9 1
286 10 1
416 6 6
335 1 5
29 10 27
233 14 12
270 10 24
223 16 5
493 1 25
389 2 1
364 1 15
293 4 10
360 15 3
130 1 5
164 14 2
23 12 1
305 0 11
93 5 28
37 1 4
422 14 24
379 10 19
422 15 22
348 9 16
244 15 3
355 1 28
255 16 16
387 9 19
7 14 8
213 12 12
118 4 24
149 2 18
305 8 12
335 12 8
17 3 8
77 3 12
499 16 3
88 3 6
136 8 27
46 13 16
27 13 26
143 5 10
187 7 18
464 14 19
182 4 7
448 0 28
72 7 8
487 12 0
320 14 11
447 9 24
147 5 10
498 12 5
128 15 13
227 12 7
2 3 21
102 6 3
146 7 1
417 2 18
298 6 25
12 0 7
424 0 27
285 0 28
318 13 13
339 7 22
267 6 19
106 5 26
34 8 22
431 6 22
187 5 0
489 9 18
88 5 3
489 10 7
275 13 2
492 7 6
244 1 4
380 8 24
357 10 23
461 3 12
455 5 20
124 9 3
399 3 19
173 15 7
352 10 8
202 13 15
272 16 26
473 3 12
60 14 25
447 9 12
98 10 26
221 10 13
380 14 7
381 4 0
27 14 10
7 13 2
5 2 23
39 2 12
431 16 27
189 0 15
52 5 15
370 16 4
106 15 13
464 0 0
338 8 17
17 6 4
212 16 7
277 0 18
419 6 22
325 5 1
308 13 19
32 15 12
75 5 15
99 9 24
445 3 11
154 15 11
21 13 21
250 7 11
441 8 19
214 2 5
253 16 10
71 4 8
37 4 23
432 4 26
83 12 27
43 14 16
309 14 13
2 4 28
10 4 19
165 9 22
298 16 18
306 4 12
233 16 23
450 12 16
470 7 11
222 15 2
203 12 16
341 4 28
219 15 18
339 9 20
264 7 12
427 11 28
282 14 15
22 14 3
50 4 23
475 10 17
27 3 7
409 15 13
413 3 24
403 7 5
228 16 20
21 5 12
309 8 23
454 5 26
35 13 14
314 15 13
181 7 1
456 8 4
23 2 0
117 1 9
486 4 28
176 6 28
255 12 6
27 13 11
183 0 5
393 15 10
1 13 5
450 3 11
72 11 19
460 8 28
306 3 3
116 10 23
29 5 22
230 2 28
284 8 24
15 1 3
316 1 19
355 14 21
97 5 2
311 11 11
231 7 2
90 2 15
232 2 7
443 6 24
27 1 13
364 9 25
295 14 13
232 4 18
146 4 11
497 1 23
176 7 22
427 1 3
404 8 16
69 12 3
68 11 10
276 0 24
454 11 15
81 8 27
428 15 15
309 9 7
404 7 2
160 0 20
119 0 4
152 10 5
159 3 9
190 7 3
77 0 0
325 13 7
132 1 8
379 12 16
489 9 24
84 11 16
125 10 4
402 10 7
64 11 1
7 12 26
277 16 27
359 10 10
153 7 20
155 3 3
146 9 15
453 10 4
37 1 9
231 8 18
59 8 9
379 0 5
389 14 24
326 13 21
42 8 26
64 1 0
490 13 17
437 8 25
227 16 16
20 11 8
435 11 25
90 4 11
291 16 7
177 5 6
183 3 11
491 9 21
76 9 22
228 4 9
419 11 18
302 11 0
189 5 0
94 9 10
339 6 3
214 9 2
496 4 15
284 3 26
77 14 27
153 8 16
41 9 24
27 3 17
129 14 4
59 10 14
62 1 4
181 3 5
251 5 17
303 8 18
389 10 19
54 16 12
432 7 25
451 7 8
142 14 8
404 5 7
166 16 2
174 0 24
262 12 16
476 14 22
380 7 2
278 1 4
44 3 8
120 12 8
489 5 20
393 3 9
463 10 27
85 3 2
183 0 27
42 10 12
196 9 27
275 11 15
171 13 16
396 0 25
391 8 12
336 4 6
236 5 17
163 2 17
348 3 0
88 8 3
71 13 19
186 1 18
384 7 13
428 0 8
7 2 9
442 4 9
318 7 1
467 10 17
353 16 4
253 9 3
101 5 0
287 1 26
203 13 5
178 7 8
257 13 0
316 14 17
179 16 12
135 0 20
433 16 11
460 9 24
226 12 12
447 12 0
455 7 12
256 8 19
168 2 14
156 9 24
447 7 6
411 1 24
397 7 27
24 0 8
170 16 22
255 8 23
146 14 8
304 15 14
358 15 4
226 12 24
475 16 6
478 14 19
495 13 0
154 1 22
174 16 5
273 8 28
33 10 4
222 4 16
448 13 20
411 16 11
253 5 5
111 11 10
357 14 10
158 10 24
29 3 6
466 5 8
109 5 21
360 5 19
424 15 20
441 14 9
437 4 10
308 1 12
158 9 24
197 5 26
411 13 11
349 7 4
101 12 12
372 6 3
161 0 23
337 15 13
91 9 26
152 5 16
107 6 7
105 13 22
483 10 0
197 3 19
437 13 24
285 6 2
480 8 6
307 14 9
167 9 12
422 4 28
391 0 27
342 13 18
271 1 4
443 16 2
126 14 11
14 9 6
480 1 16
190 9 1
324 14 2
332 15 22
477 12 14
328 6 20
167 15 20
52 11 19
334 10 27
72 14 3
38 3 27
170 8 24
178 9 19
317 9 12
305 1 5
76 10 5
178 12 14
343 6 0
164 5 9
118 5 18
84 7 13
441 15 7
57 12 7
485 5 14
169 14 3
382 1 24
351 5 16
385 16 14
51 11 17
324 8 9
46 11 7
181 4 20
494 1 27
321 6 18
445 13 10
221 12 26
421 9 20
292 6 22
313 7 0
249 0 28
479 11 16
354 16 12
193 16 9
421 11 22
146 9 15
129 13 23
169 15 18
30 0 16
473 7 12
192 12 14
487 0 21
229 11 14
190 4 1
492 11 12
76 1 4
109 6 2
22 16 13
191 10 6
132 13 7
154 9 25
212 4 20
484 3 2
55 15 9
206 16 28
316 10 8
116 10 22
148 16 24
188 4 0
36 0 18
379 16 22
129 3 20
477 5 13
418 5 1
80 14 20
102 2 14
432 3 16
395 15 5
7 1 18
298 13 5
211 10 23
285 1 27
126 13 7
475 10 16
129 7 13
461 15 5
295 7 17
43 3 12
449 13 22
52 13 26
472 3 17
55 6 8
104 3 21
150 9 13
462 8 10
365 7 15
493 13 13
115 0 10
411 11 17
365 5 9
103 4 23
220 11 11
371 2 1
345 0 14
335 12 12
481 6 4
364 11 24
121 13 16
52 9 27
139 7 15
40 8 15
250 15 3
480 3 5
413 4 7
96 1 3
219 9 18
208 8 9
238 9 4
305 13 22
161 12 12
188 9 0
342 13 26
79 9 22
260 16 27
226 15 28
145 15 5
143 7 24
132 5 26
110 9 24
71 11 12
21 15 1
98 8 4
125 9 12
5 8 25
148 12 25
385 14 25
339 8 25
255 7 14
47 0 2
424 6 14
169 14 13
473 10 16
164 8 18
31 16 25
362 1 7
166 13 1
29 1 18
381 3 9
145 15 4
493 7 24
79 9 2
326 4 9
424 13 24
233 15 22
88 7 27
208 15 14
53 3 11
360 9 6
268 9 21
461 4 24
289 11 27
370 2 1
238 5 0
419 13 6
202 10 17
55 13 14
194 14 21
370 8 2
418 1 16
84 9 15
194 11 0
9 8 9
208 7 21
376 0 16
171 1 21
90 1 6
46 5 18
358 5 10
331 16 10
193 7 12
405 6 18
334 4 22
278 5 23
132 7 27
167 12 4
323 14 20
306 2 16
180 10 7
155 14 24
339 11 2
426 14 24
397 6 27
426 5 23
208 15 6
329 12 1
470 5 24
70 0 11
168 2 10
94 5 2
115 12 3
416 0 24
72 6 19
99 11 15
190 14 5
136 1 6
210 12 22
202 13 4
323 13 4
385 9 7
314 12 16
381 10 15
458 15 11
247 10 23
498 0 3
161 14 4
366 10 27
343 11 11
471 14 21
262 1 14
277 10 15
143 1 0
11 0 11
62 14 14
433 3 4
81 1 20
288 12 8
39 10 18
464 13 27
256 1 9
272 7 8
35 4 14
130 4 22
90 16 24
79 2 6
281 5 24
105 8 2
456 15 13
220 16 21
250 12 22
70 3 0
397 2 7
366 0 15
39 12 9
48 0 2
215 4 6
356 1 22
91 16 15
10 6 21
292 3 25
289 9 26
215 16 24
421 15 19
166 9 17
186 8 28
468 12 20
10 13 17
478 7 3
318 3 1
87 7 1
183 12 26
74 3 11
432 16 17
304 10 19
121 13 17
112 14 12
224 11 10
486 3 16
211 10 4
212 10 24
31 8 1
160 8 3
118 12 7
261 15 27
351 3 12
137 14 19
408 12 25
143 11 23
413 2 3
32 6 11
245 1 14
267 0 12
151 6 2
150 11 2
354 7 1
410 4 9
58 9 22
291 16 27
9 8 21
6 6 19
17 4 17
172 4 13
482 3 19
128 6 2
343 4 9
292 6 9
490 16 25
66 10 2
383 4 3
187 3 15
284 10 13
486 0 21
156 1 12
129 1 7
197 6 22
325 8 23
118 5 26
486 2 9
49 15 22
156 4 1
306 2 7
49 15 7
444 1 5
435 14 20
188 5 0
277 9 1
139 8 27
105 10 21
205 9 24
27 11 9
259 5 7
217 9 6
112 12 16
467 15 22
284 1 18
312 13 8
332 4 5
490 10 7
332 6 20
453 6 2
191 0 12
84 7 28
422 1 5
401 8 14
486 5 23
204 2 23
485 7 18
96 1 16
20 9 26
374 10 26
56 15 4
167 5 23
305 7 28
310 4 20
175 12 14
378 11 2
286 12 9
35 1 23
157 8 24
15 5 11
84 14 11
25 7 16
36 10 2
326 3 25
335 9 23
122 16 21
83 0 21
308 6 11
363 3 13
491 6 11
441 9 27
186 6 8
38 6 6
102 4 12
43 13 12
117 14 11
297 9 5
285 13 0
102 14 4
249 10 4
422 3 25
63 0 26
84 0 28
376 16 11
312 11 18
84 5 13
204 4 25
92 9 15
91 13 17
86 0 25
112 2 2
446 10 23
38 5 22
486 8 26
58 3 14
216 4 26
429 13 20
265 16 28
442 3 14
87 15 4
27 11 3
489 13 19
301 16 4
92 0 11
75 9 4
394 6 22
385 12 10
334 1 20
247 0 22
123 12 19
117 15 27
121 8 20
192 9 14
295 16 14
356 0 21
274 3 18
362 14 8
239 15 7
489 15 17
487 12 24
8 2 6
322 6 0
27 4 2
242 0 14
292 16 14
461 6 6
490 5 28
430 6 21
142 10 28
0 16 27
498 10 25
410 3 25
53 9 21
280 14 3
98 1 21
415 14 21
209 2 26
338 11 5
6 3 4
290 13 16
379 13 25
320 16 4
42 4 25
213 16 14
209 0 28
287 10 24
168 8 12
142 16 21
125 3 15
249 14 26
187 14 19
385 8 12
198 0 15
360 7 9
246 15 8
287 10 23
454 7 5
353 5 25
444 12 8
176 11 3
232 1 19
406 15 25
454 16 9
325 13 8
300 0 15
261 12 26
207 5 24
309 10 9
106 8 27
40 4 6
286 10 27
264 15 4
116 10 27
330 5 13
334 4 3
191 11 3
360 2 25
231 2 24
384 12 15
49 1 12
401 7 21
186 16 10
148 3 24
26 8 12
79 5 21
44 13 7
433 5 3
3 10 4
14 5 18
418 15 25
473 10 12
328 0 25
464 10 10
40 8 24
86 9 26
172 3 15
261 12 12
432 7 7
202 1 9
344 1 26
188 7 20
333 11 20
422 7 0
72 10 15
264 4 17
460 14 2
397 7 1
385 2 7
38 6 3
298 4 7
440 12 1
351 4 24
124 7 23
225 3 17
417 1 19
61 4 19
330 4 28
444 5 17
71 1 1
352 14 24
346 15 21
262 7 24
78 9 19
421 16 3
110 8 24
436 3 23
239 9 3
77 14 6
60 7 26
393 4 11
351 9 25
4 3 27
137 7 14
274 10 25
435 11 15
70 11 23
15 4 15
367 6 3
79 15 11
288 7 25
145 7 1
134 11 18
341 2 16
198 1 16
361 10 9
143 7 20
235 8 12
56 10 22
384 0 6
357 0 12
466 12 16
333 6 4
206 6 16
343 9 25
207 12 18
158 10 3
452 2 14
103 4 12
329 12 0
457 1 13
456 7 4
347 3 20
119 1 27
188 1 17
392 8 14
150 0 5
165 3 21
154 2 27
440 16 19
59 16 9
174 5 0
58 3 2
90 0 11
362 11 11
163 6 2
23 1 20
311 9 15
318 9 23
38 7 5
491 7 26
436 16 9
307 4 4
241 3 3
488 12 9
232 13 9
470 7 22
250 10 2
402 11 10
277 1 26
27 10 10
342 8 3
19 16 23
340 3 27
97 8 18
164 15 21
206 16 20
149 2 22
471 3 13
270 5 26
258 9 26
495 8 28
397 8 26
421 11 5
18 13 7
291 16 7
83 6 22
54 8 4
53 9 20
307 1 9
229 7 4
459 14 23
259 14 2
434 6 3
44 13 15
343 9 8
394 15 15
447 16 10
306 15 22
44 3 4
182 10 16
381 16 5
172 0 27
335 2 16
256 11 6
236 10 19
48 6 19
340 2 5
287 5 23
363 11 9
476 9 27
232 7 7
355 10 18
18 16 19
93 1 22
5 6 9
152 3 27
172 1 5
372 12 24
228 5 27
302 13 16
314 11 4
457 1 0
325 10 25
171 1 26
87 14 6
44 5 19
37 1 14
168 2 26
255 9 3
362 3 22
372 16 4
192 9 17
70 5 22
477 0 12
435 8 26
452 2 3
299 15 14
208 15 13
197 15 1
69 9 5
245 11 28
131 16 2
350 3 3
457 12 27
229 1 1
210 9 8
55 6 5
111 1 25
167 6 0
281 5 13
474 4 27
74 16 20
429 13 6
186 7 24
157 10 21
447 6 23
363 12 6
10 2 28
408 4 10
469 1 16
443 2 7
4 1 8
459 13 20
288 0 17
153 0 14
358 15 24
338 2 6
180 2 11
321 9 2
185 6 18
480 4 22
107 7 23
266 10 14
126 6 20
247 7 21
115 7 19
234 10 14
164 3 14
145 0 22
209 11 28
217 15 1
341 10 11
149 11 10
459 2 27
384 6 8
198 7 0
173 10 15
223 5 23
483 15 15
373 10 4
362 12 12
492 15 15
182 16 15
446 13 9
480 0 21
492 8 24
452 13 18
208 11 3
313 6 5
303 9 12
222 6 23
189 16 27
129 5 20
369 12 10
153 5 16
380 3 27
363 3 12
420 13 17
18 0 18
221 13 28
298 4 9
424 14 12
269 11 28
58 12 4
179 5 21
341 4 19
42 12 22
381 1 4
286 6 5
51 9 19
431 12 15
289 8 8
127 8 6
471 0 23
26 3 23
256 2 15
52 7 9
488 16 24
294 10 21
396 4 26
196 5 26
470 15 28
58 10 19
32 0 7
280 16 23
238 6 4
393 5 18
37 15 8
459 11 16
1 4 12
451 9 5
499 10 26
477 3 12
398 4 17
281 16 24
413 11 3
64 14 8
389 2 17
399 7 22
221 5 23
104 11 8
394 12 25
446 5 12
139 11 23
248 9 10
181 5 10
408 14 5
354 8 1
239 6 27
126 15 8
14 7 24
268 2 23
395 8 0
123 13 9
16 13 8
126 11 12
264 3 26
10 7 8
229 10 5
468 7 17
118 5 13
28 9 24
285 8 28
468 8 28
94 12 24
437 16 1
216 0 4
366 2 14
370 9 18
62 7 28
85 7 27
307 4 20
432 0 10
132 14 17
24 3 9
35 5 11
92 3 12
435 1 0
149 12 23
10 10 21
48 8 7
419 11 3
454 4 11
145 11 4
390 8 20
489 10 4
417 10 0
487 4 13
106 14 15
396 3 15
161 14 15
272 13 27
242 14 13
206 16 13
155 11 2
450 13 16
6 15 18
12 15 15
46 3 21
353 11 8
237 8 27
111 15 14
362 15 20
330 15 18
266 2 14
56 16 21
423 10 7
312 0 2
347 16 2
85 14 21
450 7 28
346 15 26
434 15 6
44 3 13
467 5 4
328 0 3
228 4 19
88 10 17
215 6 19
230 0 13
29 14 1
19 0 11
450 5 25
271 6 23
53 0 28
284 0 26
80 0 17
118 6 14
14 8 3
257 7 28
252 14 23
285 7 11
373 5 26
71 15 8
124 8 0
83 4 12
303 10 20
373 3 24
153 4 2
32 8 8
21 9 25
21 13 7
395 8 6
335 3 14
297 5 0
343 15 16
410 12 8
91 0 21
29 12 2
226 0 9
496 7 25
74 5 14
449 14 15
420 6 0
112 12 8
18 13 28
93 16 10
47 13 19
459 1 23
495 9 9
364 8 27
470 12 18
321 9 0
52 7 14
58 8 22
270 14 27
400 0 15
457 7 0
431 15 21
205 16 5
487 8 19
484 13 19
441 14 15
175 5 10
451 3 3
303 15 0
480 13 4
320 1 1
150 14 12
187 6 26
482 6 19
0 16 10
478 12 24
337 7 24
478 12 23
50 16 9
422 8 21
290 0 17
227 14 0
319 9 7
76 6 3
458 5 1
249 8 26
114 9 23
248 14 11
18 8 3
141 2 6
324 2 13
349 13 14
450 7 12
235 8 0
85 11 23
452 4 18
185 1 9
256 16 19
16 2 22
468 10 11
428 14 15
274 13 9
147 9 16
61 16 14
344 6 7
347 6 18
294 7 6
14 6 10
442 12 23
423 2 14
276 10 25
411 9 5
90 3 2
137 4 11
464 2 3
98 2 4
235 16 8
307 8 4
316 5 3
36 7 9
25 2 15
42 0 14
137 13 10
265 6 23
156 7 20
495 14 24
462 16 9
336 16 15
376 0 17
435 4 0
51 9 3
179 12 27
236 8 22
413 5 17
155 11 1
26 10 24
266 5 8
453 12 21
284 3 25
89 13 28
410 8 20
288 12 1
379 2 28
372 7 9
149 12 7
328 12 27
386 10 18
74 8 17
404 7 8
120 15 3
365 16 9
197 0 18
393 12 28
250 11 10
404 16 17
75 9 2
276 8 2
186 4 7
199 10 6
182 13 26
27 6 4
265 2 5
329 2 2
200 5 23
109 13 28
79 14 6
343 10 19
435 5 7
137 2 10
200 0 7
433 2 22
320 13 22
365 3 1
271 1 16
55 11 17
351 3 24
424 4 5
122 3 1
26 10 4
436 7 8
397 3 24
217 11 11
217 3 11
250 7 15
416 4 13
326 6 2
107 10 16
336 10 13
108 12 21
480 2 28
74 8 14
293 4 1
332 4 0
357 7 27
435 14 6
28 16 4
277 1 26
396 3 21
373 1 21
185 10 24
114 8 19
60 10 27
493 13 21
456 8 15
34 2 9
264 13 28
411 7 14
155 11 7
100 15 8
165 12 6
365 1 28
498 11 5
496 3 7
70 3 27
490 6 15
220 8 16
365 10 22
401 1 12
19 9 3
241 1 23
54 5 0
242 13 16
277 10 0
228 11 6
214 16 15
139 16 0
496 2 1
45 2 7
323 7 1
437 13 27
70 8 22
181 3 4
332 14 3
72 8 3
6 13 4
382 7 19
243 12 5
357 5 28
471 13 28
347 16 1
85 12 10
422 9 27
423 4 10
458 14 13
334 14 15
99 3 26
467 7 3
143 4 20
488 6 16
176 5 20
200 8 15
114 15 16
117 6 9
34 6 11
413 3 7
305 13 15
321 2 12
363 15 3
176 12 0
15 2 17
184 4 9
217 4 26
424 15 15
338 14 2
402 8 17
349 7 16
302 8 21
114 5 6
421 6 8
334 3 28
172 4 6
250 16 15
17 5 14
176 3 20
260 15 15
396 6 11
397 3 5
168 0 23
95 15 22
61 13 9
11 16 10
422 8 21
1 2 17
412 2 26
402 1 4
112 2 15
1 8 12
100 0 1
29 11 17
97 10 0
179 14 17
85 0 22
143 9 8
199 0 0
88 15 28
77 7 27
412 6 21
71 14 17
1 4 23
299 4 25
98 9 11
173 14 7
366 7 0
442 2 26
259 6 2
34 5 1
473 2 17
276 9 10
22 11 7
86 5 9
485 1 7
24 1 6
134 8 12
480 11 24
60 16 15
227 6 15
114 11 0
428 2 22
475 0 12
445 5 19
438 11 14
232 9 14
247 15 5
284 11 14
340 14 4
289 11 23
381 14 7
325 14 13
427 5 0
491 15 2
13 5 28
220 13 27
407 11 11
50 9 22
316 1 25
261 7 8
401 16 25
421 12 13
201 7 21
444 6 26
397 5 14
108 5 13
412 14 17
90 8 14
36 14 27
263 9 25
307 6 27
279 8 25
62 4 16
130 10 23
182 6 25
433 4 6
377 9 20
479 9 9
163 16 2
24 15 19
264 1 15
339 6 4
286 10 19
22 0 21
488 13 20
430 7 10
34 12 12
290 9 11
80 3 5
334 12 6
204 2 28
302 7 20
260 6 27
83 11 14
119 11 28
128 14 21
64 10 3
433 10 12
315 11 28
324 4 19
370 11 24
253 10 5
458 11 0
427 11 28
155 2 15
60 9 27
382 4 3
412 14 9
400 16 6
369 7 9
246 6 18
102 4 6
255 14 23
148 12 6
447 15 23
110 1 5
113 3 28
280 16 8
51 8 21
58 12 25
454 9 21
91 10 5
121 11 8
417 5 1
379 2 20
86 4 21
442 3 10
440 11 20
412 12 27
208 4 22
296 12 22
301 11 21
268 7 27
2 16 19
20 0 8
157 7 13
402 8 20
255 15 10
252 9 3
488 15 19
290 15 10
254 6 8
357 12 1
194 2 11
6 3 23
458 14 11
175 13 12
42 3 21
295 8 23
6 14 8
341 9 27
203 11 17
463 5 5
81 7 25
75 14 11
218 13 2
26 1 25
317 2 22
426 10 23
375 6 21
186 1 12
23 14 8
123 14 19
101 3 27
337 6 25
134 8 21
289 9 23
92 9 21
418 10 27
450 11 28
381 5 18
27 10 19
54 8 23
305 12 2
396 5 15
362 13 12
61 11 28
458 2 9
444 5 13
279 9 18
6 10 26
139 15 6
469 10 16
38 3 13
148 16 19
260 6 12
488 0 17
72 3 14
199 5 15
483 14 4
363 16 8
309 7 28
480 13 15
413 6 28
228 7 11
314 7 1
161 6 1
340 12 7
348 3 0
485 4 19
415 13 4
73 13 13
272 11 1
150 14 20
426 5 14
14 1 15
299 8 6
50 4 22
315 6 10
281 11 28
392 14 3
289 8 16
192 1 27
282 14 14
288 7 15
8 7 0
146 0 11
279 9 15
196 12 0
107 5 23
120 3 1
110 7 14
86 13 20
4 0 19
241 7 24
360 3 6
205 9 0
37 15 3
300 4 23
386 16 19
72 13 24
224 16 27
210 3 12
247 1 6
343 16 15
239 0 1
368 16 20
193 1 15
45 3 7
83 7 0
16 15 16
6 12 15
322 10 20
47 6 15
278 4 11
110 0 3
442 7 8
192 11 11
200 16 19
485 2 25
447 9 7
205 13 15
238 5 3
47 15 12
467 14 24
101 3 6
266 3 13
291 4 15
314 16 20
374 4 19
293 7 6
105 2 26
123 3 20
328 10 22
219 3 24
292 6 15
425 9 26
430 3 24
66 9 3
476 13 27
149 13 19
172 1 25
262 5 22
157 5 12
200 5 24
38 11 28
165 6 13
367 9 13
362 2 20
302 11 12
153 7 27
420 1 21
406 3 24
10 8 0
230 9 23
460 9 17
417 7 14
126 15 4
205 10 4
77 15 23
478 0 27
438 5 16
152 3 6
400 15 12
453 15 11
450 4 0
460 1 16
223 7 9
264 1 20
120 14 3
436 5 19
314 4 19
166 14 13
408 11 4
4 5 21
205 11 12
157 8 8
253 15 21
228 3 8
366 3 14
271 15 0
180 9 17
448 16 19
320 7 6
150 10 25
420 2 12
497 0 14
339 15 20
385 1 12
489 13 4
60 14 6
36 14 3
285 11 8
350 15 2
368 10 16
246 11 6
303 9 7
376 7 6
55 3 24
248 0 9
20 4 3
462 4 23
117 13 17
482 16 17
191 8 18
267 11 25
44 0 24
63 10 14
486 2 28
191 12 0
323 7 23
493 6 21
179 15 1
305 12 28
132 1 10
118 2 7
170 14 5
94 16 27
169 4 24
491 12 9
360 15 8
479 6 0
182 8 15
430 8 24
487 10 18
237 14 26
407 6 25
189 8 21
202 9 28
24 16 15
224 15 2
273 13 2
266 16 4
368 1 21
477 12 17
72 5 19
358 2 2
105 3 6
34 1 27
92 5 25
148 0 4
359 13 12
278 9 22
202 4 4
384 5 0
285 13 8
352 8 19
442 0 11
374 2 9
446 10 16
100 14 26
45 15 5
370 4 22
272 0 20
275 14 15
467 7 18
498 1 27
237 3 0
214 3 16
342 2 0
470 3 23
445 15 22
292 8 17
399 5 24
491 3 12
6 11 18
110 4 15
0 3 25
338 12 20
164 5 11
479 11 16
97 8 4
263 7 4
272 15 28
400 11 21
18 12 8
476 1 16
364 16 26
358 13 8
116 1 2
80 11 15
150 10 6
374 12 0
451 8 0
483 15 13
425 0 9
397 7 7
300 14 11
398 0 14
492 0 27
208 4 25
392 2 16
214 12 10
322 13 10
182 6 28
421 4 18
97 1 8
305 16 2
336 11 21
498 9 3
343 7 8
67 14 25
237 8 22
330 4 2
119 6 16
454 15 2
474 13 3
38 7 3
331 3 24
417 8 24
499 8 28
156 0 14
23 0 21
137 12 20
299 2 26
477 14 15
303 2 25
376 5 3
453 9 10
28 5 9
432 16 20
154 6 13
285 12 26
94 9 12
332 2 21
473 6 12
422 16 20
330 2 7
398 14 22
449 5 17
202 9 21
122 9 11
124 14 18
319 9 5
16 12 7
486 3 20
167 8 5
434 12 12
258 11 6
426 10 6
117 5 12
451 2 22
229 6 19
277 10 17
350 13 18
95 10 20
409 9 15
214 8 11
476 7 15
449 13 13
203 15 28
194 0 24
7 3 5
383 10 24
320 7 15
274 6 3
9 9 14
347 13 18
139 11 15
313 6 8
126 1 18
380 15 16
482 13 15
245 9 19
470 1 13
311 15 1
374 1 6
206 6 9
21 2 0
251 6 8
490 12 1
419 3 18
288 4 9
107 15 0
100 1 6
389 10 0
124 10 16
471 4 22
468 12 7
71 2 13
187 12 26
349 1 25
256 12 27
288 5 17
194 8 24
346 16 18
161 0 14
329 3 21
221 12 18
27 8 12
64 14 2
251 8 1
425 3 9
300 4 6
176 8 9
65 1 28
211 7 13
314 4 7
223 14 13
78 5 17
460 1 6
451 16 4
381 4 14
323 16 27
91 8 1
160 3 12
269 4 20
94 11 7
321 9 16
470 6 11
462 10 21
278 13 11
158 8 11
165 11 0
76 12 16
243 4 19
231 5 19
219 13 26
134 14 10
224 4 24
231 9 18
227 4 22
26 0 6
221 14 19
352 16 1
166 11 21
10 0 21
95 0 10
212 14 7
481 12 24
327 13 11
134 15 9
428 16 6
88 10 0
122 5 9
15 4 6
57 9 15
16 11 19
492 9 6
194 6 15
331 8 11
54 3 27
108 10 28
387 8 1
152 7 11
366 0 19
476 3 22
440 4 5
16 15 27
184 9 0
43 1 15
497 9 16
94 9 12
295 3 8
459 9 24
495 13 28
380 3 17
194 15 6
437 2 18
171 4 23
383 7 13
352 7 26
298 1 28
350 8 18
30 15 17
225 10 5
378 10 2
443 3 2
11 13 4
214 6 26
128 13 25
182 6 25
458 10 15
443 10 19
346 2 9
267 9 5
470 10 4
308 3 23
120 15 2
204 3 21
113 14 3
431 14 22
167 11 6
256 13 13
152 5 9
213 11 9
397 16 24
42 11 18
395 16 16
359 4 16
137 11 7
450 1 12
168 12 17
346 1 20
104 9 21
150 1 26
39 14 5
430 4 12
293 11 4
123 9 19
64 6 22
427 10 1
136 10 28
250 2 0
421 5 4
114 15 20
345 0 10
111 10 17
452 11 0
227 3 13
26 2 16
304 7 0
252 12 23
160 2 10
262 4 12
177 6 20
35 6 6
94 9 21
475 12 9
24 10 28
197 5 7
392 12 18
17 13 6
409 13 6
52 14 5
266 6 18
61 9 24
402 14 23
390 4 27
281 16 23
485 16 21
144 15 16
118 8 20
459 1 15
79 13 24
282 2 14
351 16 2
303 2 2
499 6 4
430 6 4
478 8 3
241 15 26
61 11 25
457 11 2
323 8 26
77 4 9
60 4 2
8 6 26
165 16 8
184 15 5
432 5 11
298 16 7
2 8 16
283 14 4
210 0 10
342 16 9
59 0 18
298 13 8
338 14 27
418 9 7
181 2 3
364 2 26
51 7 25
163 5 28
361 3 18
249 14 15
119 0 25
359 13 17
296 3 27
4 15 21
429 8 27
55 12 19
467 5 21
354 14 14
445 15 8
323 3 7
384 14 14
396 16 18
270 0 25
69 11 7
251 5 10
362 1 23
106 5 7
420 14 9
437 0 7
280 12 21
74 1 26
369 8 24
253 1 10
10 11 7
457 13 9
457 8 11
175 6 3
271 7 17
62 16 12
409 13 15
273 6 23
366 2 24
21 3 16
259 10 11
216 12 28
469 4 13
483 0 11
139 14 0
376 16 26
451 10 20
251 9 16
9 11 1
154 1 22
339 0 17
78 6 10
246 13 12
291 9 15
141 14 13
437 3 4
137 5 25
45 6 18
386 16 25
196 15 13
426 5 24
235 1 22
354 1 13
289 3 24
224 5 19
301 4 15
104 7 5
67 3 2
180 16 12
123 13 25
15 11 24
152 0 13
451 13 20
485 6 5
205 16 28
236 13 12
154 2 1
201 6 23
298 7 5
399 2 5
66 4 10
17 4 7
135 6 1
147 2 23
0 13 16
74 11 14
165 5 20
468 8 12
393 8 12
282 3 22
366 15 0
389 12 24
270 11 14
146 11 2
165 1 23
58 7 27
368 0 24
149 15 5
471 15 9
92 8 11
345 1 10
467 3 28
31 6 19
479 4 7
104 11 3
393 4 6
481 5 25
487 16 12
394 1 20
478 3 11
48 8 21
166 6 1
491 9 6
23 15 16
23 0 0
114 13 14
359 12 12
175 10 9
213 15 17
343 13 16
329 7 4
20 7 15
240 5 12
191 2 8
480 14 26
168 12 18
159 7 11
339 6 19
482 5 24
475 16 3
488 9 3
139 16 20
344 3 15
152 2 17
383 11 27
71 14 17
78 9 28
141 7 14
320 2 19
265 15 27
470 7 24
283 3 19
234 12 8
177 12 20
227 9 0
384 4 18
248 1 2
95 11 12
422 3 6
462 1 15
193 4 27
305 11 1
279 0 1
43 0 10
287 11 7
368 15 9
453 10 9
19 10 18
437 12 14
59 8 16
108 3 27
199 13 16
280 5 1
187 9 4
186 1 20
313 2 24
175 1 1
100 9 9
432 9 12
347 4 3
5 15 20
324 5 26
318 3 10
229 11 17
271 16 26
410 2 9
161 14 11
476 5 15
63 12 4
182 13 11
360 8 19
87 13 3
151 8 4
203 12 13
272 3 24
49 16 11
43 15 18
412 0 23
409 11 24
457 16 5
481 7 14
496 10 23
230 1 18
403 4 27
479 1 27
190 16 22
451 0 2
374 9 4
139 11 27
338 3 8
419 14 10
42 1 23
78 12 6
144 1 19
189 9 7
468 4 2
460 12 22
194 15 18
125 5 5
339 8 14
228 2 15
444 16 2
412 10 0
497 5 15
261 16 7
484 9 13
35 15 3
152 11 17
303 10 13
43 14 27
387 1 19
280 15 14
156 14 27
281 2 5
278 16 20
336 0 24
226 15 1
81 10 11
290 4 13
49 10 11
144 12 8
159 11 13
486 10 11
169 9 4
334 1 12
432 7 22
159 13 13
194 0 26
481 9 7
209 1 24
398 6 17
179 1 1
14 10 25
425 12 1
388 6 2
422 1 20
333 7 28
199 12 23
489 15 4
378 8 15
118 15 18
206 16 6
245 0 1
325 15 16
212 1 13
394 1 27
128 3 4
410 6 4
167 15 0
267 12 20
422 10 2
340 8 0
190 14 9
39 15 26
276 13 28
89 6 7
332 3 10
121 14 5
122 9 26
136 6 27
400 10 24
489 0 25
203 15 2
364 12 24
196 10 9
146 8 16
170 2 2
387 7 27
308 15 19
498 0 8
248 0 27
169 15 15
298 9 26
72 2 15
162 16 5
466 15 13
278 1 24
170 14 2
103 10 10
199 2 25
458 4 25
133 4 5
138 9 22
39 4 23
410 16 28
55 12 19
129 8 8
75 7 2
384 15 27
373 0 4
291 9 18
65 3 27
164 2 4
416 12 4
210 4 6
427 0 22
60 10 8
107 5 22
209 1 25
200 11 2
261 13 7
135 16 25
125 16 9
380 10 16
412 14 25
40 10 0
140 8 9
119 2 5
370 9 3
292 7 28
467 8 24
444 14 8
264 2 0
41 15 4
301 6 23
227 13 1
71 7 22
386 1 28
79 10 7
312 10 5
63 8 0
73 15 7
204 13 17
290 10 16
104 16 28
226 11 20
31 2 2
64 0 28
397 0 19
282 0 20
25 0 20
464 14 9
400 11 11
464 5 13
126 8 26
279 7 9
284 10 2
236 11 5
498 8 21
238 5 17
383 2 8
296 5 23
432 10 12
49 11 23
254 0 8
329 4 20
340 0 1
273 16 14
69 14 26
312 15 3
354 2 18
403 2 26
197 14 9
336 14 12
214 7 24
159 5 14
433 15 5
7 14 3
227 12 23
138 8 19
7 11 21
121 6 4
210 8 14
66 16 13
64 12 9
442 11 4
453 3 1
50 6 7
499 6 27
10 16 25
376 15 18
314 6 19
98 4 18
71 9 3
157 2 7
81 6 1
108 4 26
312 8 26
259 1 22
336 7 8
439 1 6
215 1 11
379 15 25
363 5 8
373 8 12
1 5 26
497 15 10
60 4 10
247 8 24
196 13 17
302 13 26
171 11 12
198 1 3
53 11 22
427 12 15
186 0 17
226 4 27
126 13 2
4 11 23
290 7 12
396 3 21
441 6 7
235 16 11
380 14 5
178 2 15
356 9 4
242 12 19
273 7 27
13 5 11
279 12 14
128 16 26
364 14 4
342 7 4
79 11 6
275 12 6
120 8 28
438 8 24
134 2 7
49 12 6
418 14 20
25 2 4
84 8 25
207 7 4
355 12 26
287 2 24
483 2 28
407 11 19
290 12 11
493 15 23
175 7 12
370 8 3
10 15 20
75 10 21
334 2 22
356 3 7
7 9 27
166 15 13
242 7 20
236 8 9
21 16 13
164 13 23
0 12 4
92 11 22
93 11 3
78 10 23
488 9 4
356 6 20
19 4 12
493 9 28
28 5 11
186 12 14
200 13 1
127 2 13
312 8 8
336 2 15
41 4 1
97 11 10
290 11 3
453 0 9
136 14 25
102 11 2
350 3 15
341 2 16
136 3 16
393 13 27
219 12 8
341 3 15
304 12 20
491 6 2
171 12 4
132 16 2
384 11 26
262 6 13
217 0 8
361 16 7
50 4 21
76 6 28
129 13 20
133 9 3
316 4 21
400 15 3
204 4 15
46 15 7
410 6 25
300 9 6
374 15 21
30 1 9
247 9 26
458 10 13
333 16 8
438 2 10
268 15 17
425 16 17
13 16 21
398 1 18
7 13 7
465 10 11
356 12 27
111 13 17
421 16 5
465 6 5
437 8 12
368 2 4
87 15 21
18 11 4
153 0 6
219 5 23
50 16 0
398 1 1
291 6 17
313 0 28
184 7 21
276 4 12
407 7 7
84 6 16
90 2 17
170 3 0
114 4 20
75 11 2
154 10 23
211 0 10
445 8 13
305 0 5
20 6 16
467 7 23
129 7 13
222 12 12
377 5 20
162 6 26
228 2 5
408 0 23
46 4 0
280 6 21
185 4 2
327 9 27
19 12 17
151 10 1
4 14 1
20 15 7
196 15 12
240 4 0
362 4 15
295 7 16
207 11 28
498 1 27
110 13 12
78 10 16
325 16 18
246 15 19
230 10 8
203 14 19
107 15 8
202 16 19
437 9 12
68 7 21
18 10 3
364 0 23
263 6 7
184 7 27
413 11 14
115 0 8
46 4 23
295 2 14
405 0 22
13 14 22
414 3 6
339 1 4
231 11 10
386 1 18
444 3 21
187 8 3
382 2 24
432 14 16
335 10 9
177 4 0
385 2 18
201 5 20
13 6 7
125 4 10
235 3 7
423 3 0
268 11 3
90 16 2
117 12 2
286 10 11
97 1 21
310 15 13
172 16 6
387 2 9
82 11 21
356 8 25
196 11 28
211 16 5
249 9 27
154 11 1
265 1 2
124 16 15
471 16 15
178 0 21
440 2 3
457 15 25
124 15 0
214 13 8
290 11 19
433 1 0
301 5 25
251 2 3
132 1 20
275 9 13
40 10 9
144 16 3
481 10 23
476 7 3
128 7 12
357 16 20
355 15 1
326 3 25
188 13 26
185 8 9
186 7 4
437 6 22
355 0 16
0 4 19
223 8 6
98 7 3
499 12 2
188 2 24
432 9 11
455 14 10
56 9 7
63 5 26
26 0 2
105 4 4
170 3 16
166 16 7
391 4 19
338 8 9
456 10 3
3 9 15
276 15 22
371 14 28
345 2 12
372 15 27
263 6 14
62 13 3
62 10 0
73 0 4
160 15 10
192 0 26
450 5 4
418 2 21
49 2 22
50 11 4
451 5 14
77 15 17
403 5 26
178 16 14
188 16 28
421 8 10
248 0 5
230 4 21
223 11 7
159 2 5
34 14 22
80 4 2
187 5 21
176 16 0
446 10 4
374 0 1
96 8 5
116 15 17
57 3 5
397 16 26
306 15 24
367 2 1
320 15 14
225 6 11
171 5 7
249 0 9
32 16 9
262 10 18
100 15 15
304 7 22
42 16 7
396 7 4
343 6 11
242 9 19
60 9 15
112 15 20
432 6 22
196 12 27
99 7 26
57 16 9
373 8 27
77 4 9
172 15 25
138 0 24
253 3 24
451 9 0
4 7 22
400 15 13
117 0 3
468 11 12
133 9 0
17 1 22
30 1 2
9 3 18
429 2 0
386 0 9
410 3 2
343 0 8
139 13 14
422 6 18
332 10 1
207 10 25
234 13 9
274 4 2
103 1 3
346 7 18
431 10 6
321 16 25
77 11 24
176 3 3
406 2 26
427 7 25
262 11 8
371 14 10
314 16 6
46 14 26
427 8 26
264 1 8
403 3 22
410 10 13
20 7 4
131 2 28
73 14 27
155 2 27
347 0 27
496 11 24
408 6 1
355 8 16
85 9 2
259 14 15
309 14 16
67 14 24
316 3 12
64 12 1
482 3 3
118 1 24
407 4 21
434 9 0
170 4 22
480 10 5
192 10 0
347 5 8
130 16 15
213 2 9
497 6 26
43 9 15
495 9 27
75 1 5
241 12 26
462 9 11
271 5 21
28 1 14
404 13 16
375 10 25
361 1 14
492 10 20
318 9 19
348 5 26
112 5 22
320 3 24
353 16 9
345 7 19
35 2 14
97 12 16
197 6 5
379 5 25
433 15 7
496 3 1
32 14 7
246 16 3
341 2 22
26 13 17
73 5 11
12 12 27
273 15 0
172 2 21
35 6 27
38 7 13
416 14 9
6 3 26
206 0 16
460 14 9
24 1 22
12 8 21
472 3 20
163 7 16
394 4 22
466 6 9
226 10 21
404 3 3
438 0 2
353 8 0
223 11 15
395 7 18
477 7 11
423 11 16
100 7 23
229 15 11
24 5 22
106 4 26
354 13 25
221 11 1
424 5 14
150 1 0
246 2 10
297 6 17
373 9 18
441 9 9
186 14 3
249 0 26
443 9 24
127 11 23
306 7 12
245 7 18
369 10 11
254 7 1
28 14 1
153 12 7
486 12 18
275 2 23
84 7 0
325 9 19
318 16 28
411 11 4
56 7 28
147 15 20
455 0 18
461 9 27
124 8 14
260 8 4
480 14 5
282 4 9
354 14 23
488 10 17
315 13 25
303 9 4
458 11 19
146 4 20
10 14 15
44 3 10
112 8 21
11 6 0
104 2 5
236 2 26
7 12 25
373 7 12
299 1 16
277 11 22
477 16 2
201 12 26
361 14 18
372 0 4
130 9 18
91 13 24
226 0 11
332 11 10
62 7 14
287 3 7
456 16 22
137 3 6
345 8 8
189 15 7
315 13 13
488 5 21
112 2 9
375 11 11
320 12 15
194 16 21
188 15 13
325 11 24
302 0 25
384 11 11
325 11 20
107 15 2
91 10 7
135 3 18
246 6 6
471 14 8
99 6 22
237 8 1
326 12 12
355 9 7
162 1 1
469 13 6
329 11 3
1 8 26
174 6 4
336 4 27
307 8 14
444 6 2
130 13 15
384 9 7
316 0 3
302 10 7
332 4 0
322 3 11
313 8 24
405 12 22
163 9 25
288 10 9
139 14 2
419 2 14
404 14 21
250 10 28
189 0 14
265 8 22
263 12 4
136 10 25
440 12 12
236 3 9
341 6 25
425 6 17
183 5 20
362 4 23
440 2 23
38 12 21
373 15 8
178 10 5
214 12 2
27 3 10
204 15 0
192 11 5
289 13 25
143 12 10
66 8 19
457 14 8
124 5 20
16 12 28
238 16 24
295 8 25
479 11 28
310 6 9
240 0 8
336 6 8
14 5 5
311 3 27
420 16 3
157 8 27
140 12 5
60 3 24
482 12 12
435 12 4
387 13 5
262 2 21
258 16 21
160 13 23
166 14 18
305 13 11
179 9 8
63 1 27
436 1 28
393 16 5
21 6 18
53 0 23
414 15 26
361 12 6
101 2 14
81 8 0
72 15 24
432 4 0
276 7 23
457 14 17
319 13 16
241 10 2
147 1 4
300 2 21
365 16 5
120 11 5
86 3 6
400 11 21
407 11 24
234 15 5
241 5 26
406 10 25
389 5 16
303 16 13
363 15 8
386 4 7
220 3 24
257 8 20
393 3 17
416 3 15
469 14 16
301 15 4
375 4 13
492 11 14
145 11 2
495 13 24
405 14 28
173 2 15
346 14 7
67 5 14
412 0 11
1 7 17
147 11 4
321 6 25
243 0 2
360 11 12
232 11 19
113 16 20
106 1 28
58 6 17
414 2 24
492 11 25
63 0 11
57 6 5
285 7 7
236 7 14
412 7 9
370 9 0
401 2 15
136 13 1
384 9 0
320 6 9
483 14 13
6 0 3
237 7 9
419 5 1
289 4 25
10 3 22
435 7 8
299 2 14
407 14 2
50 14 5
235 10 8
229 14 9
342 3 25
47 5 22
139 0 21
381 2 27
428 10 17
109 16 20
250 6 5
141 4 5
173 7 3
179 9 9
269 2 8
366 9 6
306 10 26
382 5 0
418 13 22
138 9 17
418 1 14
445 5 23
252 15 19
177 4 18
184 5 9
141 8 2
428 2 13
192 3 14
317 8 3
378 4 23
127 5 15
100 8 3
2 9 2
143 0 11
438 6 8
140 14 27
196 6 18
174 10 22
169 10 7
51 2 28
305 9 23
310 4 14
141 9 6
101 9 13
362 6 22
144 11 10
160 15 22
382 3 20
469 1 20
193 12 0
498 4 21
413 2 9
395 3 4
441 7 4
319 8 2
210 12 24
319 13 22
225 16 5
121 4 24
111 15 6
362 15 21
77 8 6
394 12 14
283 14 2
169 7 9
242 9 4
310 4 6
429 14 11
416 8 0
216 15 23
396 7 27
378 5 2
255 7 2
299 5 16
251 6 0
338 12 17
322 9 2
247 4 3
9 1 25
224 1 22
81 1 8
258 3 0
370 2 9
111 0 8
373 3 21
143 13 5
138 16 28
460 14 10
174 4 8
158 2 20
340 3 25
424 10 22
223 8 25
97 4 17
124 11 25
128 11 16
235 15 12
373 3 1
246 5 0
485 8 13
123 13 7
443 11 19
110 11 16
190 10 27
206 11 5
44 7 14
407 4 0
196 0 3
59 1 18
354 9 6
71 6 12
81 14 5
240 11 19
293 10 7
354 12 23
343 16 11
302 9 4
324 14 25
486 4 14
292 13 16
74 1 11
224 7 2
462 14 18
322 13 0
363 1 27
432 3 0
182 16 6
485 1 9
316 3 13
198 5 12
242 11 20
393 3 16
351 13 11
384 12 0
326 7 2
135 1 5
130 2 25
395 12 2
286 1 11
466 14 21
242 15 3
339 0 18
72 3 3
213 10 5
329 14 11
152 0 15
370 8 12
419 12 6
50 3 26
18 8 3
365 8 3
389 1 25
383 1 15
89 3 26
213 9 21
444 8 3
407 1 15
85 16 23
411 3 25
272 15 16
317 10 25
9 6 3
393 7 10
433 6 0
49 2 2
325 9 12
287 6 27
182 1 15
33 1 22
83 3 4
415 4 22
383 3 13
205 6 13
86 1 19
218 11 13
450 5 13
24 8 12
319 15 11
441 10 17
339 15 3
398 0 10
14 5 19
8 3 17
254 6 22
3 7 2
302 8 24
174 4 12
372 2 12
147 7 12
68 5 25
129 9 27
480 11 1
432 1 17
233 4 20
398 11 3
80 7 23
80 8 21
310 5 11
461 4 22
118 2 19
464 0 15
226 9 22
174 12 12
126 9 17
445 11 23
482 2 2
190 13 22
192 10 9
288 6 6
411 1 25
190 9 22
302 2 9
40 0 13
361 6 6
371 16 0
212 9 19
376 9 11
296 5 21
274 7 13
134 11 17
38 15 15
400 1 9
131 3 14
170 9 1
142 10 2
428 3 12
58 8 7
6 12 21
220 14 13
143 9 6
43 4 17
55 15 8
9 16 20
321 8 1
295 14 5
322 13 19
125 8 14
427 16 2
148 4 6
409 14 14
373 2 16
179 12 24
344 11 12
203 16 20
86 9 27
365 6 7
138 13 24
406 11 1
483 8 22
385 7 18
297 16 6
204 6 17
197 12 3
107 1 22
188 16 10
471 9 9
222 0 4
286 13 1
273 0 3
75 8 9
162 3 1
381 9 5
456 9 23
421 5 4
294 4 23
250 6 11
362 12 11
42 3 13
69 3 0
326 2 2
226 9 23
142 0 9
322 4 25
5 3 18
230 5 7
128 15 27
59 14 6
90 9 8
218 15 23
302 16 10
345 8 13
266 6 17
375 5 18
0 1 16
408 15 15
223 6 6
49 7 3
86 4 6
231 1 2
132 14 2
46 9 1
349 16 26
9 11 28
344 2 12
348 15 1
465 9 27
482 13 10
276 7 4
308 12 3
302 9 1
268 14 5
92 8 3
35 14 10
3 14 17
463 4 25
407 5 8
276 16 26
363 7 14
395 7 10
356 13 16
250 13 0
185 15 4
21 6 19
20 10 26
495 9 7
387 2 28
118 0 11
291 15 28
437 16 9
285 1 16
20 7 20
423 10 19
482 1 16
86 5 17
282 11 13
106 10 27
94 2 9
259 15 12
279 10 22
46 15 28
420 14 24
65 3 23
375 1 25
146 13 12
163 4 15
172 13 18
418 6 24
32 4 16
13 1 4
386 16 17
447 16 4
245 7 11
95 3 25
159 4 27
108 2 17
110 7 0
494 0 3
174 3 15
437 5 13
361 15 24
56 12 7
410 16 17
228 8 4
249 9 15
288 15 6
237 13 6
412 9 12
2 16 19
295 6 27
192 15 12
426 5 12
90 9 16
336 10 21
236 12 8
209 3 8
419 16 21
175 8 21
402 0 7
96 15 12
162 7 20
73 0 24
373 14 6
478 4 4
92 10 24
345 2 4
151 14 5
245 5 8
383 15 12
59 15 27
115 8 7
140 11 21
491 8 27
81 10 2
372 11 7
283 14 4
334 9 2
270 2 18
449 7 10
248 0 13
121 12 12
281 0 17
475 5 20
206 13 19
320 4 23
45 0 15
169 5 11
251 3 21
345 0 3
112 0 10
15 6 24
193 15 23
211 9 21
189 4 24
193 7 2
168 2 15
493 13 25
314 16 26
406 12 14
107 14 25
66 15 24
231 10 0
411 9 10
167 9 13
247 0 24
168 5 21
155 12 24
403 10 22
32 13 9
338 1 14
65 4 12
51 12 26
313 1 24
105 12 8
140 16 1
438 8 22
31 8 21
388 10 15
161 9 7
148 10 23
370 0 2
491 4 14
403 6 8
196 6 16
227 12 7
197 5 7
411 0 21
111 12 7
300 2 13
48 3 15
490 3 12
410 16 9
272 3 3
402 3 2
206 8 11
120 2 0
202 13 12
447 3 1
311 3 8
94 1 17
333 13 28
3 16 18
122 5 16
495 10 22
185 10 17
50 8 7
37 2 8
484 0 1
402 12 13
57 8 15
455 9 7
209 12 6
447 2 13
307 4 2
29 4 26
383 3 20
390 8 14
32 10 2
288 12 12
314 4 26
125 6 9
314 11 22
290 13 15
408 5 18
495 6 5
314 4 18
93 14 3
268 4 28
437 4 1
26 9 17
462 16 27
151 4 19
357 6 11
377 16 26
355 9 20
171 10 22
102 11 2
122 9 7
339 1 7
242 10 18
493 3 7
96 2 2
239 13 1
409 5 27
35 10 16
30 13 27
425 0 18
317 2 23
12 7 10
233 12 14
280 15 7
198 16 23
335 15 4
110 7 20
13 3 12
395 0 21
113 14 6
64 14 18
105 10 17
40 5 6
43 16 11
489 4 25
301 10 20
160 4 13
360 12 13
174 7 8
191 14 13
82 0 9
185 1 21
56 4 4
37 6 23
150 10 20
249 15 18
401 10 3
148 3 17
386 16 4
104 11 0
107 8 20
196 5 26
353 15 21
40 12 10
439 2 22
38 9 27
99 6 0
58 8 15
157 15 19
187 4 20
203 8 15
384 13 11
96 9 18
226 4 3
32 7 20
115 8 16
397 1 5
93 6 1
493 13 25
228 5 23
210 9 21
254 1 9
145 0 16
315 4 23
313 7 9
444 12 23
186 1 9
494 13 2
220 11 9
259 3 2
443 13 5
128 13 25
464 11 22
14 8 19
133 0 28
50 14 20
393 7 5
409 13 3
267 3 6
177 12 25
406 10 11
157 2 28
204 9 22
453 4 5
210 8 22
381 10 7
4 4 19
258 8 1
287 9 16
171 3 25
314 10 10
481 0 19
402 12 11
365 1 14
193 1 9
130 3 11
82 0 9
193 2 3
365 3 18
440 9 11
150 4 24
97 12 27
45 10 18
91 5 16
499 9 12
124 10 8
91 15 9
256 6 5
436 2 3
434 12 3
365 0 25
334 9 16
32 8 26
93 1 26
309 8 9
345 2 1
53 4 24
442 1 25
378 3 15
86 12 21
172 15 28
439 13 19
73 8 19
272 15 27
267 2 13
36 10 27
470 13 3
26 8 17
275 5 5
235 12 19
243 11 16
177 12 10
142 1 13
133 0 27
323 13 8
485 15 27
91 16 22
341 7 23
447 16 3
0 8 7
14 13 2
350 5 1
470 15 3
428 10 24
437 12 18
483 11 4
467 15 26
469 3 21
128 0 1
227 6 3
243 4 26
218 1 26
42 3 6
372 8 11
13 14 3
386 9 4
428 4 4
477 7 12
136 15 6
156 5 9
34 14 4
345 15 10
413 10 4
182 12 0
498 3 14
279 15 2
72 7 2
309 2 4
92 10 21
47 8 20
212 5 4
259 9 28
172 16 16
91 8 22
76 13 22
118 2 23
251 11 6
134 8 10
168 13 5
115 15 0
288 6 9
497 14 8
350 1 19
283 6 6
366 2 24
13 6 14
162 2 13
241 11 13
104 5 24
95 3 12
266 4 15
431 7 10
226 7 24
117 2 2
10 6 7
310 11 14
371 7 25
398 9 16
251 4 6
71 12 25
333 15 3
200 14 26
185 3 17
144 4 4
57 5 7
282 2 27
86 15 11
319 14 14
329 16 20
176 10 6
439 9 23
458 10 24
235 9 4
462 1 2
114 15 22
417 10 20
85 6 8
479 3 1
340 12 26
388 8 19
120 12 27
489 8 5
347 14 21
22 1 14
445 2 6
463 5 24
206 15 22
304 12 1
266 13 2
293 11 28
480 11 2
285 7 2
120 0 12
323 8 28
454 10 5
397 11 2
419 8 24
249 3 27
322 10 5
204 2 23
253 11 13
57 0 13
347 0 11
55 10 9
27 2 15
273 6 11
116 11 14
263 15 23
121 2 24
455 8 14
154 12 3
12 6 6
400 14 26
455 15 23
281 13 4
355 4 7
10 4 14
118 4 17
212 7 15
286 11 3
40 1 6
217 7 2
49 9 7
474 1 5
238 15 4
12 16 27
397 6 28
393 3 24
109 0 2
9 6 27
17 5 5
203 0 15
331 16 4
47 1 22
498 5 14
346 14 20
69 8 1
30 3 10
98 15 7
474 5 11
369 11 14
196 6 27
2 5 3
429 3 5
471 0 10
483 0 1
383 7 23
115 6 6
470 6 9
138 4 7
279 9 9
263 2 7
400 7 27
364 6 26
407 10 14
168 10 26
444 4 13
433 8 9
181 5 16
140 9 2
78 10 24
275 8 26
319 10 27
6 14 10
100 4 23
236 5 25
38 1 16
152 3 9
122 3 28
276 12 13
469 15 20
209 3 19
203 11 6
29 13 25
70 7 15
88 0 9
461 13 26
262 5 13
385 3 14
244 8 19
97 6 17
395 11 25
197 4 23
123 12 4
407 10 13
377 9 23
168 1 23
407 0 13
477 11 14
323 2 5
261 2 0
280 12 1
380 15 2
457 4 14
291 4 25
59 14 25
320 6 21
33 7 16
150 4 4
181 6 22
295 8 0
0 6 11
301 7 19
135 12 6
472 14 21
349 5 11
332 15 10
73 5 28
99 7 8
171 3 12
430 10 18
444 3 28
392 7 16
87 0 12
293 0 22
138 13 18
471 14 16
343 7 10
113 15 12
236 8 11
49 5 3
487 9 3
381 6 22
85 1 21
171 10 23
160 5 5
408 2 0
66 10 16
480 4 18
169 7 17
57 2 17
19 13 19
51 2 15
136 3 3
329 0 6
427 5 3
3 9 17
123 3 2
54 10 0
97 15 4
217 7 9
288 1 0
76 6 12
172 13 6
81 14 24
227 1 27
437 11 22
464 6 21
356 15 20
292 0 11
183 10 19
209 0 19
349 4 1
302 2 5
76 9 23
463 6 19
208 6 2
182 6 6
61 6 3
491 7 22
296 4 14
195 5 20
23 10 7
138 14 23
202 7 13
65 10 25
453 13 16
269 7 20
98 0 5
388 8 0
288 2 13
10 14 14
247 4 26
385 5 2
296 6 20
144 0 15
117 5 9
152 15 13
34 5 12
137 11 14
175 16 23
204 11 2
487 7 6
388 0 17
44 4 24
217 0 28
169 16 14
452 8 3
349 16 4
18 14 17
54 16 19
52 1 21
207 13 18
481 9 21
347 12 14
391 12 4
415 2 9
111 7 5
238 7 5
350 9 22
37 0 21
252 14 24
376 1 2
291 9 9
223 6 27
430 3 8
476 9 0
335 3 23
181 13 6
18 10 0
30 10 8
77 5 7
395 16 11
499 4 22
294 2 24
343 12 27
275 14 25
247 16 19
271 14 19
226 16 25
54 1 5
360 7 1
105 6 23
228 0 18
384 13 19
218 10 13
371 16 16
16 5 22
205 9 5
45 0 22
411 7 22
370 6 14
76 6 8
392 11 18
451 14 18
55 13 16
281 4 16
86 0 28
415 1 19
477 5 26
177 7 4
302 10 20
411 7 23
88 1 11
333 0 18
47 0 3
40 5 15
152 9 23
163 6 10
480 7 24
283 6 18
88 5 15
384 7 16
91 8 4
346 16 12
254 3 13
219 4 18
418 3 21
475 6 19
132 9 25
442 7 20
82 3 19
364 14 2
35 9 14
447 7 21
56 1 2
432 12 12
48 12 21
159 6 23
211 15 11
330 3 17
58 15 16
241 11 27
299 9 17
201 4 14
355 7 12
157 2 6
161 14 0
325 16 14
398 16 21
304 15 10
75 12 19
395 9 4
477 10 4
3 13 20
294 8 4
325 5 2
124 3 5
334 10 23
414 5 11
76 2 0
240 1 24
344 1 3
383 2 6
155 5 8
58 13 18
359 8 21
62 15 9
30 0 5
148 11 2
196 4 25
358 1 10
347 5 15
326 1 11
229 4 25
128 2 24
462 13 21
448 11 1
389 8 11
98 13 19
411 15 4
176 9 16
268 4 21
261 11 24
87 5 12
464 2 16
176 16 1
245 14 4
1 3 1
89 2 17
77 5 24
356 2 8
132 0 20
226 4 5
484 7 7
55 9 27
2 2 16
163 0 10
498 7 24
298 10 1
242 14 2
369 7 14
331 8 2
277 11 18
10 0 22
287 7 25
230 3 13
224 7 13
296 3 25
317 15 2
401 0 1
64 10 15
225 8 4
87 15 19
106 2 4
334 15 14
126 7 2
252 10 4
269 12 5
415 14 26
249 8 9
158 12 10
23 5 19
219 15 8
139 2 23
359 9 15
283 14 14
149 9 20
291 6 12
79 2 10
26 2 12
223 7 11
356 1 22
354 1 11
107 9 22
411 11 19
275 0 13
203 5 13
55 11 17
347 10 19
346 16 6
297 2 15
416 0 17
207 7 8
360 13 7
239 12 20
343 14 4
166 12 10
69 11 8
176 16 28
249 14 21
470 14 3
358 2 17
98 4 4
471 13 18
293 4 8
135 15 12
288 16 19
17 1 23
162 13 16
70 9 15
42 2 22
81 0 19
367 5 4
450 12 9
382 0 27
168 0 11
400 3 20
13 0 10
96 7 11
243 4 14
73 0 16
290 1 0
105 3 12
10 7 1
122 13 27
70 9 15
248 14 21
481 9 3
194 3 18
264 9 15
207 10 23
186 2 13
273 1 1
31 6 6
434 10 11
450 0 9
193 16 6
192 4 13
47 8 15
311 9 22
36 4 26
51 16 21
300 2 3
280 6 16
329 13 14
389 9 7
363 16 26
259 8 11
79 1 19
9 2 27
243 6 25
61 12 19
302 6 9
349 13 15
341 11 2
109 10 1
348 12 21
276 16 5
239 2 6
498 3 4
429 0 1
345 9 25
446 1 26
252 8 3
382 11 24
384 8 8
449 4 14
214 13 19
352 15 27
426 7 26
52 15 4
144 4 15
158 8 10
111 8 4
105 3 9
214 4 28
278 4 4
327 3 17
340 16 21
226 9 11
477 7 10
461 7 11
182 16 28
0 2 28
251 7 3
280 15 25
487 16 24
492 8 20
372 12 4
60 1 19
344 9 0
349 6 9
450 11 24
236 1 23
128 7 8
217 13 17
48 14 11
448 14 17
182 3 20
242 16 28
23 4 13
488 1 19
103 15 22
344 9 21
362 6 22
290 11 1
218 11 18
450 8 17
455 12 11
209 4 22
490 6 13
18 13 1
321 16 8
483 1 19
206 15 19
279 12 18
460 4 4
381 7 6
410 7 7
288 8 22
123 11 28
170 7 16
204 1 12
467 10 13
407 2 23
151 6 5
119 15 16
458 13 25
221 12 10
168 1 18
432 1 5
243 13 24
281 8 20
72 3 16
381 14 21
92 5 21
426 7 10
294 11 25
407 12 24
35 10 25
170 16 28
267 2 20
121 0 21
185 14 4
31 10 21
100 10 7
367 3 23
343 2 5
288 16 19
489 15 17
357 2 28
480 8 16
477 16 6
18 5 21
465 14 0
259 1 5
22 6 5
92 9 12
421 2 1
448 6 27
44 5 4
402 14 17
254 0 28
149 10 5
20 0 17
408 5 11
452 0 15
420 0 9
72 8 14
490 4 10
451 15 27
490 0 4
304 4 5
24 4 20
175 14 28
378 6 13
222 2 22
255 8 16
476 12 3
366 4 11
413 0 23
479 3 1
460 0 24
400 1 1
255 8 7
179 10 6
284 0 24
111 12 0
84 14 22
352 12 11
167 1 17
266 9 27
354 10 27
425 1 12
464 14 1
121 5 8
455 13 5
265 4 27
263 9 22
213 12 0
471 13 25
411 16 11
132 10 13
313 12 17
307 15 24
291 13 17
226 3 2
350 0 26
207 4 5
302 6 15
101 11 6
244 2 14
337 1 26
266 10 16
233 15 22
233 1 19
224 8 17
395 14 7
323 14 10
383 6 8
455 13 26
11 13 8
122 0 23
90 2 1
187 11 21
423 11 20
131 14 5
46 13 21
120 10 12
454 2 25
143 6 7
205 13 22
235 2 14
255 14 0
244 6 6
479 12 6
202 11 6
168 15 19
482 15 21
456 7 13
492 11 16
10 1 25
65 16 20
103 2 28
380 16 4
303 12 1
72 5 24
15 1 13
96 12 3
67 2 7
254 11 8
414 7 4
67 3 10
437 9 25
186 10 22
201 2 15
271 5 5
497 14 20
86 0 4
36 5 12
371 12 9
322 10 25
307 3 24
483 4 6
425 12 15
383 10 16
87 15 15
438 9 22
78 2 5
44 10 16
283 14 3
151 4 4
279 0 8
62 10 0
454 0 26
294 15 19
180 11 24
84 11 12
257 11 9
135 0 2
27 6 26
265 5 27
257 16 27
18 4 16
421 12 15
291 13 11
390 13 12
480 6 21
31 8 23
162 14 13
416 13 15
433 7 18
383 9 27
257 11 16
351 10 18
487 11 16
45 5 14
318 11 15
468 13 28
119 11 26
100 8 2
97 13 15
102 8 6
494 5 5
464 15 13
57 1 0
108 15 5
397 6 21
201 7 7
139 14 15
451 4 16
330 7 22
120 2 9
220 14 2
17 2 24
486 13 8
90 11 6
20 16 11
397 13 5
411 16 2
88 16 23
347 2 19
466 3 24
302 15 26
153 10 10
185 13 14
253 1 22
6 0 14
44 16 3
251 0 17
203 14 19
425 3 4
498 12 21
295 4 3
44 7 14
144 3 20
142 14 26
4 11 22
126 5 20
215 12 19
221 12 20
40 1 4
198 2 2
192 6 8
422 0 0
328 13 22
230 13 28
86 15 1
215 0 23
361 12 1
6 3 4
79 13 2
255 9 7
397 3 22
338 0 13
437 13 5
497 12 15
71 10 5
374 14 18
182 14 11
319 3 12
34 6 20
116 16 27
239 1 21
75 7 16
394 12 12
349 13 5
361 13 0
99 7 10
329 12 21
365 5 17
280 6 8
344 2 15
397 11 0
427 4 14
164 7 0
427 11 24
150 15 8
98 10 21
62 2 6
10 11 5
339 6 25
147 16 2
171 13 8
45 16 25
68 13 26
394 6 20
356 7 18
51 15 18
420 7 3
460 16 20
7 2 4
210 3 19
185 15 26
38 1 20
417 1 23
205 0 13
440 12 28
388 13 2
8 11 15
320 1 5
373 14 5
439 11 23
350 0 20
490 9 0
359 2 24
448 4 19
39 10 26
72 0 0
410 8 0
330 4 24
135 13 4
257 16 22
270 3 25
381 6 11
474 1 11
162 15 7
31 12 24
251 2 19
307 7 25
272 4 20
276 12 21
138 4 15
328 10 8
3 4 13
385 11 17
308 4 2
294 10 9
330 9 24
267 13 21
164 2 18
49 12 18
481 2 15
387 11 28
221 14 5
410 10 12
401 0 15
113 10 7
456 13 13
464 7 14
242 9 27
495 11 20
147 10 15
2 0 26
310 1 13
258 6 13
406 15 2
379 11 3
9 16 19
373 16 3
287 10 14
262 10 21
437 5 25
220 7 10
417 9 26
340 4 24
429 8 16
478 3 5
273 8 22
180 15 1
463 12 16
498 3 4
315 14 27
50 11 25
458 1 11
41 16 22
340 12 15
169 7 6
141 12 13
387 5 26
27 3 28
435 2 25
265 4 9
458 16 4
272 8 7
338 12 14
92 16 20
196 16 18
48 10 23
376 9 7
180 12 6
93 11 28
134 15 3
420 1 14
143 9 7
375 16 11
191 6 21
91 12 12
165 3 2
475 11 14
289 16 19
361 15 18
190 1 4
47 4 2
111 4 23
176 5 24
319 2 12
414 12 26
186 12 13
66 0 7
91 3 5
447 2 9
120 12 13
300 4 21
416 7 4
16 12 13
440 15 0
291 7 18
98 1 13
266 15 19
270 10 27
59 13 20
469 14 21
104 1 10
186 7 11
206 4 18
309 14 0
401 0 1
235 1 0
481 2 9
332 4 9
48 0 10
217 0 5
103 8 13
163 12 14
115 1 25
455 16 15
198 7 7
329 10 4
4 16 12
403 0 16
265 0 28
454 0 2
99 4 1
76 6 6
261 15 9
414 14 17
49 14 26
393 14 3
491 10 27
391 12 4
439 0 11
166 8 11
121 7 13
362 12 23
234 9 26
92 7 0
275 12 1
173 3 7
499 12 18
208 14 27
260 1 9
499 15 27
36 12 27
428 15 3
145 2 23
107 10 3
194 13 10
381 0 5
485 16 25
448 12 22
220 16 0
396 5 6
157 9 3
255 2 17
186 4 14
122 1 21
369 13 15
423 15 5
101 16 27
379 8 7
39 5 24
107 14 22
477 0 3
462 3 22
359 10 16
42 13 24
225 12 26
259 8 18
3 7 27
292 12 5
406 9 8
150 14 25
32 12 23
176 16 22
440 15 16
301 1 17
204 1 22
317 3 27
61 2 20
59 11 12
9 11 13
331 10 9
385 1 5
325 12 23
358 15 25
335 8 3
92 1 3
365 8 21
27 16 21
55 3 19
382 3 7
156 0 16
17 10 17
449 3 23
427 10 14
18 15 8
171 6 4
387 9 27
233 4 13
352 15 22
498 10 24
46 16 0
401 8 5
487 13 5
250 12 20
323 9 0
425 5 22
221 16 6
474 8 9
158 13 16
288 2 18
288 9 16
342 7 0
327 8 16
237 13 0
111 2 13
213 10 17
359 8 2
240 0 8
295 2 26
491 3 27
365 0 1
263 8 21
489 11 16
480 2 8
195 1 8
129 3 21
327 3 24
55 15 11
469 4 0
328 15 7
296 10 24
91 11 17
134 8 25
301 12 12
25 8 15
220 5 16
342 7 0
320 7 7
82 2 25
124 1 3
65 7 26
231 5 9
4 10 14
161 1 14
484 5 0
429 12 11
429 15 9
293 8 4
312 7 0
90 14 9
285 7 6
366 11 21
352 16 19
281 5 13
151 13 2
463 6 24
187 9 22
209 4 14
13 15 27
113 4 16
57 4 22
493 12 23
270 16 3
340 5 11
75 1 1
461 1 1
454 6 19
100 2 15
82 11 13
121 5 28
286 5 26
301 9 23
45 13 16
38 6 10
273 4 25
242 9 27
41 4 28
26 12 24
216 1 12
393 11 15
498 2 9
144 12 14
92 8 19
112 0 7
465 1 1
138 12 20
421 15 12
475 7 28
344 8 6
86 0 22
336 4 21
45 10 2
115 14 17
126 12 5
214 0 23
31 8 21
209 14 20
277 8 1
347 14 11
398 7 7
336 13 8
484 10 2
242 2 2
129 2 22
172 2 16
145 13 23
294 16 26
462 12 16
436 4 16
9 11 17
163 2 17
37 9 7
41 7 15
441 3 1
356 7 15
37 9 6
93 15 0
197 10 27
90 6 7
2 7 8
151 6 7
463 12 5
185 14 0
157 3 9
301 3 20
40 3 9
324 6 0
176 8 13
195 15 4
184 8 11
158 2 23
474 16 1
344 14 21
231 12 26
368 8 13
206 0 7
94 12 14
276 15 3
399 13 12
301 9 16
299 3 15
271 11 19
221 4 18
476 11 0
387 6 3
59 1 3
96 16 3
302 15 28
73 8 18
488 5 27
452 16 19
8 1 4
163 5 26
337 7 19
85 7 7
353 1 24
470 7 2
461 9 20
54 2 19
13 14 22
14 12 18
153 16 28
226 2 0
41 15 20
290 4 7
348 10 28
89 2 17
109 2 8
26 4 11
447 0 9
55 16 27
340 15 6
459 1 16
120 15 19
99 2 5
187 16 26
302 3 18
117 13 26
219 14 25
421 7 11
189 4 8
204 14 15
311 3 2
431 15 23
9 3 23
490 1 18
193 4 14
140 9 7
172 13 12
29 5 18
118 2 18
7 3 2
467 16 12
198 1 20
272 12 9
163 1 20
304 1 16
486 14 2
338 1 9
391 1 22
257 3 25
460 4 23
358 1 19
262 13 28
436 10 27
280 11 28
263 0 24
371 10 10
370 8 18
271 15 14
12 10 13
258 15 26
166 2 17
201 0 24
481 14 9
188 3 8
385 12 1
496 8 1
296 14 13
127 12 4
152 4 6
299 2 2
484 10 19
349 13 9
174 6 24
370 9 10
401 10 6
254 11 0
460 8 19
458 14 4
55 6 0
82 5 13
142 13 2
408 11 12
40 1 9
351 3 7
450 12 25
385 9 19
436 13 1
460 16 2
498 14 18
217 9 25
144 8 18
29 8 18
178 6 12
1 1 4
279 12 19
173 16 15
59 2 5
216 8 5
319 0 15
24 15 11
349 15 23
238 13 19
381 9 12
457 12 16
77 2 4
259 7 21
97 4 7
80 10 7
279 8 24
242 6 9
189 2 7
186 16 25
110 16 17
172 3 14
464 3 11
493 1 16
411 2 5
487 1 14
100 16 3
109 13 5
413 3 5
191 4 3
169 11 8
301 2 4
343 15 27
289 1 28
35 14 20
252 0 5
368 7 13
301 11 25
316 0 19
142 5 20
399 11 3
228 4 23
294 6 12
477 12 8
437 6 21
494 0 14
232 16 3
261 1 15
227 5 18
480 16 27
196 8 5
187 16 10
158 4 17
423 12 24
127 1 25
175 6 17
430 8 16
50 1 27
495 7 7
201 16 0
161 11 27
465 13 3
23 2 13
492 0 18
224 14 15
414 9 1
82 0 13
274 0 23
220 4 13
191 9 11
474 4 15
395 2 1
134 9 0
67 11 16
467 3 3
279 9 10
336 9 25
245 3 11
57 15 21
266 16 18
215 10 22
479 16 18
41 12 6
44 2 5
356 0 21
120 15 18
157 11 15
486 3 0
309 9 13
452 8 5
118 15 18
346 13 8
109 8 12
353 8 22
25 12 10
375 0 26
329 0 25
389 12 7
264 7 10
59 5 21
93 2 10
116 9 11
114 11 12
297 13 12
79 6 1
466 2 20
401 9 22
460 5 24
177 6 28
218 3 0
207 0 1
416 9 25
98 11 12
210 0 3
195 4 6
192 14 9
340 3 4
12 6 17
318 1 20
117 9 16
47 14 0
487 5 1
225 9 6
380 11 3
445 3 9
208 0 28
375 1 7
70 9 8
113 10 27
392 11 20
433 2 4
407 15 7
37 2 23
94 16 0
189 4 6
464 7 25
456 0 14
47 3 20
356 13 18
346 6 8
181 10 12
161 9 27
200 3 7
385 13 4
179 1 24
305 12 10
139 7 13
43 7 18
320 10 16
136 11 23
2 0 11
360 7 3
339 16 7
360 13 5
328 0 28
365 7 23
175 8 6
420 5 14
158 11 19
52 6 21
475 2 27
264 12 21
445 6 1
94 13 8
170 0 2
431 0 27
287 11 15
115 7 15
181 3 14
351 3 21
347 10 22
487 6 11
392 6 16
359 4 21
437 16 18
196 16 26
205 16 18
64 2 15
359 13 14
487 14 24
75 10 5
320 2 26
239 5 6
108 16 18
73 7 24
192 2 24
198 13 17
90 0 3
129 3 23
419 15 3
342 12 5
146 16 22
258 12 10
10 4 25
169 7 17
370 9 21
182 6 24
224 13 5
126 11 16
68 1 17
367 13 26
329 15 20
150 7 5
160 4 10
172 14 23
137 12 25
202 14 16
226 16 5
366 14 19
449 16 0
352 15 12
388 15 12
455 5 21
178 0 26
189 3 13
356 2 2
335 12 8
18 16 28
364 10 25
71 13 1
453 9 19
175 8 16
276 7 15
28 2 14
254 14 26
300 15 23
479 11 23
466 10 8
332 6 9
358 4 8
57 5 2
245 11 12
322 6 9
349 1 6
298 3 22
370 2 16
205 10 16
358 11 22
160 1 18
202 4 19
302 12 2
87 11 11
121 6 18
88 1 21
379 10 13
116 10 9
145 4 0
202 2 17
405 4 24
286 13 10
113 2 8
51 4 27
118 13 16
197 7 14
192 12 18
228 5 15
198 9 18
467 4 15
256 10 1
85 2 11
449 16 8
8 4 6
66 3 19
168 11 10
48 12 3
192 10 14
80 7 7
346 7 24
495 3 9
426 4 24
361 14 17
204 11 16
95 1 7
268 4 11
176 0 26
407 13 28
337 15 1
328 14 1
33 6 13
343 0 8
258 7 15
361 7 9
488 5 9
498 3 16
411 8 4
31 3 15
208 6 13
124 8 4
269 4 22
10 6 2
391 11 0
410 1 13
435 13 27
137 10 10
270 1 10
462 6 24
242 5 14
51 11 17
45 4 8
46 15 7
366 9 15
283 0 13
237 0 6
162 12 17
272 13 24
446 7 2
37 10 12
137 0 3
390 8 24
297 12 15
412 12 28
80 16 12
64 10 4
17 12 27
291 14 10
107 12 25
443 4 3
265 14 7
320 0 7
449 16 5
93 13 25
89 16 25
281 8 24
99 3 17
260 2 4
498 15 17
419 1 0
352 2 12
299 13 9
37 6 6
499 5 13
155 7 8
462 12 16
409 16 25
102 7 16
358 5 5
309 4 22
242 7 17
229 1 23
53 11 28
168 5 17
294 3 18
474 16 12
313 0 9
191 16 6
448 13 2
84 16 18
301 3 7
141 1 7
23 12 4
409 1 7
285 14 0
242 9 22
31 8 12
332 12 3
287 15 23
464 0 4
131 12 8
396 10 27
164 6 21
307 10 9
172 1 20
6 14 6
81 5 18
248 16 0
324 5 11
154 11 20
427 15 7
122 4 6
437 4 9
289 5 1
400 5 6
373 0 18
381 14 17
43 13 7
47 7 11
198 14 3
256 11 6
182 7 7
228 3 10
257 1 6
470 10 22
241 14 27
67 8 18
233 5 14
325 15 13
457 3 20
85 7 27
158 4 21
369 7 6
218 9 7
329 9 11
50 4 27
394 6 6
387 13 24
461 0 13
8 13 9
89 15 4
474 2 27
354 8 8
76 0 19
478 9 25
257 7 12
405 5 10
275 15 21
408 6 6
76 8 16
385 5 3
343 6 24
463 13 15
162 11 8
263 10 5
360 10 24
311 11 14
462 5 26
82 16 18
26 5 11
125 14 27
78 12 27
81 13 17
25 4 7
330 8 17
32 15 18
376 0 7
8 3 10
53 13 16
221 8 16
160 4 3
349 14 1
300 12 11
25 2 19
475 9 13
482 5 22
476 7 0
184 9 22
268 14 19
216 0 6
14 4 21
164 11 4
33 14 0
79 13 8
0 10 27
357 9 18
7 9 2
341 2 24
287 8 21
101 8 25
467 12 3
29 3 2
249 12 28
123 3 15
339 13 8
316 3 15
423 16 3
122 3 10
437 5 3
354 13 17
414 3 5
346 16 15
266 2 10
195 0 19
96 5 5
152 11 13
480 1 11
92 5 17
206 14 22
129 14 6
167 13 8
109 1 28
128 16 22
30 0 11
299 4 22
51 1 2
215 11 2
358 12 1
289 8 19
411 7 1
180 16 23
70 2 21
211 14 23
94 3 12
180 7 28
30 11 16
401 16 9
353 13 27
346 0 26
400 3 13
245 13 26
460 4 10
158 7 10
357 14 21
97 15 8
292 7 21
152 10 17
84 13 28
408 11 10
108 11 10
107 4 9
156 11 8
256 14 5
435 10 10
467 12 13
30 14 9
93 13 2
103 5 17
369 12 7
14 4 8
164 1 0
100 7 7
312 7 0
166 13 13
155 13 28
19 14 16
62 8 12
242 1 14
285 9 23
28 12 10
86 11 17
414 16 14
137 16 17
389 16 6
377 10 0
107 3 1
195 1 8
208 5 24
184 13 18
434 1 1
151 5 6
175 6 16
283 15 3
339 4 27
167 6 5
246 12 6
36 13 10
151 10 18
425 10 20
272 9 27
139 10 13
431 14 27
412 3 10
260 5 7
43 11 18
65 15 7
492 10 15
47 4 25
207 4 4
213 12 7
484 11 20
304 3 3
419 13 5
345 15 22
47 6 9
404 3 11
78 15 20
206 12 6
331 9 2
327 2 15
447 11 9
196 3 19
453 10 9
383 0 28
0 9 20
260 2 12
6 10 26
167 4 28
133 4 14
16 2 19
408 0 15
293 12 2
112 7 13
476 12 13
43 1 10
63 5 25
270 12 23
330 10 10
266 15 26
366 14 1
88 8 1
403 12 1
470 2 23
214 2 5
409 1 6
4 14 3
15 8 6
459 0 28
183 10 22
23 15 0
499 6 22
358 11 12
233 2 15
246 8 28
408 9 20
269 10 20
189 10 27
7 14 15
359 9 22
389 13 15
341 16 11
378 11 9
255 5 14
92 12 18
293 5 18
269 13 6
289 4 28
0 0 0
433 1 21
403 1 6
373 12 4
110 11 28
344 12 8
280 7 15
189 9 21
362 4 27
412 5 18
339 13 3
180 13 15
206 10 21
28 5 8
183 7 26
423 15 19
328 13 3
376 13 4
345 5 4
462 13 26
313 9 0
446 2 23
179 15 8
285 15 2
177 9 8
33 15 26
126 10 7
283 11 19
295 7 2
99 9 3
190 7 14
113 6 16
385 4 15
9 13 15
111 2 12
58 12 24
358 2 26
277 2 8
319 4 23
65 4 26
420 15 8
69 0 24
426 2 26
283 14 15
491 1 8
362 9 27
73 15 12
52 12 16
82 9 7
248 6 1
136 9 18
413 6 2
442 12 14
31 16 15
379 1 6
322 2 27
365 9 6
373 13 13
277 14 20
407 7 2
220 10 18
361 10 22
379 11 12
201 8 21
349 15 7
13 16 5
163 9 19
422 16 4
133 1 7
353 8 17
5 10 6
0 7 19
134 2 21
314 10 19
477 12 8
167 4 18
356 8 27
349 2 5
332 5 24
63 13 13
291 4 12
258 2 28
145 3 28
411 0 28
28 7 0
366 5 15
220 0 6
483 9 9
355 7 22
312 4 25
486 8 15
147 16 28
382 2 7
326 0 2
231 1 0
468 14 11
346 1 4
1 5 22
152 13 24
414 1 26
406 14 22
203 3 27
328 1 20
369 16 1
317 12 6
368 7 13
337 9 22
277 9 10
39 13 23
67 16 4
361 4 13
356 2 20
441 8 9
356 13 20
279 15 23
457 13 25
388 10 18
39 4 12
323 10 15
258 3 26
124 9 26
92 14 12
38 1 7
123 8 17
490 11 19
153 9 9
398 15 7
55 0 25
149 3 2
67 0 7
52 5 26
337 4 11
91 2 13
121 6 9
289 4 11
27 8 28
354 1 6
240 12 28
481 0 11
159 5 4
471 15 21
6 0 18
317 0 11
63 5 1
341 15 17
33 3 25
331 3 28
404 5 18
285 6 22
301 7 2
315 12 24
116 13 10
215 16 3
241 16 26
350 5 1
56 7 7
450 15 11
416 0 12
294 12 27
329 12 22
350 14 28
344 7 14
220 4 0
343 1 15
49 4 16
66 11 27
394 13 26
304 7 7
200 8 21
230 9 12
21 14 26
459 2 21
281 14 12
74 8 6
116 5 17
36 16 13
120 7 28
314 15 4
474 9 13
455 14 22
427 8 1
69 1 14
333 6 5
498 16 2
243 8 11
79 15 14
474 7 20
270 2 10
362 7 20
103 8 1
87 0 22
383 1 1
366 12 23
6 7 12
399 11 13
437 13 25
85 14 17
161 8 4
159 9 7
6 16 13
379 12 8
427 0 14
198 1 19
428 11 22
291 6 6
89 13 4
431 8 1
360 16 9
227 2 3
268 10 4
265 0 8
166 16 7
466 1 11
422 3 25
22 11 0
325 16 9
395 10 8
213 16 23
95 15 20
191 16 13
21 14 18
115 1 14
204 9 11
38 6 27
428 14 15
263 4 25
210 8 17
477 0 12
449 1 10
192 14 16
105 5 24
417 2 28
488 8 25
208 0 9
387 2 21
416 8 0
20 5 9
287 5 10
193 8 15
343 10 10
431 7 21
0 9 12
145 12 21
445 16 22
2 13 27
103 4 20
31 11 4
494 0 4
425 7 23
41 2 28
27 7 2
343 5 2
420 12 28
269 0 24
329 15 7
341 4 1
93 6 3
366 9 16
161 4 1
170 0 24
339 8 26
109 5 27
265 1 12
297 9 1
193 15 0
239 4 12
98 11 21
374 5 11
181 7 18
314 11 14
90 14 20
19 5 15
322 12 17
156 5 13
436 8 6
51 8 12
77 11 4
20 8 17
22 10 23
377 14 13
160 16 14
250 7 15
222 2 18
355 10 26
244 9 9
295 14 24
407 0 21
66 9 9
235 11 15
105 5 7
140 10 14
75 8 12
394 2 15
29 3 7
175 13 5
381 13 22
229 1 24
477 7 26
470 12 28
357 12 23
184 8 26
234 10 27
70 11 5
151 14 5
310 14 12
419 13 20
342 16 5
93 14 1
182 3 21
245 13 11
160 14 18
325 1 0
495 11 12
313 13 14
262 10 18
458 3 17
374 12 27
336 0 27
136 11 4
212 7 28
48 5 23
308 16 18
418 14 22
104 12 26
203 9 25
229 6 21
383 9 20
383 0 0
403 11 25
166 3 6
277 11 11
21 7 7
133 1 15
21 0 21
336 10 12
227 3 28
125 11 0
13 6 17
453 11 9
35 11 0
250 6 18
15 10 3
122 11 18
163 3 10
399 16 4
495 15 10
361 8 5
481 9 1
388 10 0
451 4 9
476 15 19
6 3 19
49 0 28
343 5 10
151 1 24
20 6 21
297 10 22
152 7 23
442 9 25
492 6 15
91 1 6
340 16 8
427 3 15
121 3 24
327 15 24
67 16 17
351 14 22
462 11 27
317 5 3
200 14 14
239 16 13
188 5 4
160 11 3
228 1 2
90 10 5
194 5 26
406 12 24
350 8 28
367 15 25
357 3 2
58 11 10
113 8 23
143 10 8
401 10 5
73 15 1
116 9 27
376 7 25
437 12 24
153 13 9
406 9 28
414 0 2
375 9 24
242 5 13
321 1 15
458 6 19
17 10 22
262 7 21
175 9 1
335 5 15
297 13 10
259 2 14
281 5 19
55 0 15
220 8 2
239 15 19
450 15 19
256 2 1
199 5 24
126 11 1
220 0 21
262 5 28
122 8 19
352 1 17
207 11 28
110 2 0
77 8 25
276 1 2
75 4 0
13 10 2
321 11 23
194 15 26
261 9 3
368 5 0
174 2 10
372 5 22
221 13 22
42 7 18
168 8 8
128 5 0
64 2 7
265 6 22
401 6 26
140 12 1
97 6 13
136 13 17
145 9 23
257 6 1
408 9 17
316 16 13
431 14 6
234 4 26
236 0 14
159 8 14
410 16 25
432 3 4
34 14 3
110 7 18
441 2 7
134 15 4
203 6 1
365 6 25
490 6 20
288 3 5
154 16 6
383 12 25
8 7 8
68 8 20
442 3 9
485 2 26
136 9 19
309 15 6
367 2 1
378 16 16
167 8 16
472 12 15
28 13 1
102 1 25
333 4 0
428 16 9
493 1 19
479 11 27
125 8 26
480 9 2
319 12 14
304 8 26
458 1 23
157 3 5
308 6 5
131 16 27
125 15 6
445 0 10
24 5 13
118 2 23
111 12 6
249 8 2
182 15 14
44 14 2
473 8 19
489 1 14
174 6 26
224 8 18
85 8 11
388 12 18
129 3 28
167 12 24
218 7 18
87 1 23
491 0 18
456 10 21
3 15 27
414 13 21
264 3 28
457 0 14
489 6 18
181 6 21
178 7 13
77 12 15
107 7 18
80 3 16
158 11 24
422 15 14
489 9 0
326 3 23
103 14 20
340 4 16
207 1 20
334 0 22
109 0 10
443 3 18
141 4 10
364 0 21
395 4 21
330 14 18
279 3 25
140 3 8
311 16 12
383 12 11
400 14 21
138 0 22
444 12 8
82 13 19
226 7 11
322 10 25
