107 12 49
37
500 6874 780
634 2208 493
57 2442 799
363 3884 602
275 4049 901
636 8157 1465
656 8564 1523
615 7863 24
770 3385 1896
787 5416 567
64 5454 573
139 8600 1536
173 3094 1256
865 4218 376
302 5919 1923
725 7236 1024
216 3471 1811
636 8645 515
938 1586 249
73 7455 1867
903 6811 172
716 3808 1639
938 1871 1312
389 3717 1728
423 7871 446
386 6960 1275
25 6078 1621
806 1956 1060
2 3950 1300
814 8072 549
212 1230 304
875 3738 1374
552 8615 1289
645 5522 817
480 6035 1687
75 1699 620
349 2630 1480
