100000
38172 42942 69992 25179 64678 34338 92638 37247 62922 71576 28864 64169 75765 84809 79286 59545 37360 58355 24474 81456 91369 89423 2422 70340 42055 13075 46922 51289 39441 66045 64869 79040 30165 80803 78794 71669 8517 91702 28926 83734 99869 92373 19311 74510 84381 12763 80836 94432 47336 17931 26405 16063 85223 30794 78234 56697 21728 39197 30070 88922 22199 40843 96373 73065 12550 52717 47905 95731 30720 88213 87140 73694 10009 6634 60598 81624 65369 53012 38874 61605 70463 95482 10596 25272 17958 25765 82452 77782 22801 54762 1153 9845 7714 7779 2684 5296 9556 36945 54583 42616 71984 74912 54430 90728 83203 87392 77697 16411 62063 74042 11782 43416 700 44276 8062 99116 41193 8174 51675 6824 65378 82580 88137 66968 12868 98382 90901 5784 91084 29698 59100 48565 13357 7064 56085 61659 32321 69736 52319 68593 10907 81101 10388 86341 90522 55301 39090 75248 56051 2299 2494 92560 32186 75269 65653 57554 96675 66604 3115 95353 80417 6238 14973 29825 89408 3521 46735 84919 98235 41532 39200 49592 45811 57888 65925 57314 53209 28597 36811 32280 84654 53296 85403 55116 61127 54988 37852 93911 42318 80669 91876 71635 68064 55641 33905 23532 92993 16058 28723 1543 82711 32027 94129 28601 41940 31620 77302 30766 78796 11672 7742 8604 35372 6752 33261 3454 61328 28514 28209 93940 5644 75036 4036 39353 49786 55461 82448 51457 25942 68516 77381 11772 37813 57544 69471 74555 17057 42926 60917 9873 22572 88180 53348 24287 17641 73922 67099 55183 55363 35871 14188 81562 5766 21106 15706 94371 10474 76018 47464 6059 35120 21936 41223 79837 18964 40101 6892 98735 97864 65156 54592 57153 47206 11740 82938 91357 75197 62225 72331 85198 7323 30876 11688 31948 20439 13169 4504 77865 453 48496 59876 16008 79233 62332 4629 72801 84892 77624 5056 3548 14993 94427 84416 72917 25689 31924 50738 11095 15542 94426 55348 30907 37459 9472 92735 80050 67101 62981 69477 71920 98277 6992 26944 84077 51111 60569 99098 11916 78370 85858 2940 34840 62208 2285 12068 68313 65291 3099 44663 46462 12858 17913 49223 14297 96435 67227 19216 50832 49105 47488 68453 56821 60860 73547 72974 74729 10211 48727 42595 77835 27455 72057 69365 47146 40996 55238 65615 99334 81568 10175 41695 64621 8346 82710 71326 66074 49976 80627 76133 65306 54301 53062 77132 25808 59402 4320 374 4328 70564 63591 4458 61193 22637 4950 4254 62396 64001 62851 28022 23093 59328 4152 86046 35260 12722 74026 31643 56877 33337 2871 78514 66215 6799 81448 40279 14951 26295 80877 33940 57457 8205 62876 40397 96774 44447 44671 6171 44619 98363 70596 50596 52489 70775 23587 71618 87997 18160 77507 55630 43264 74770 1395 57355 73723 1290 4374 40177 5533 63681 26936 80161 6202 87505 1768 59964 50428 79908 76194 90199 14751 29015 43531 90883 96134 57117 7570 43948 55858 89914 79007 2127 7298 29336 19731 50521 60248 80419 8913 87207 49587 55331 25781 67682 85652 8815 87761 46386 52602 19932 81038 20450 72047 83887 36856 73715 75617 43998 10975 27479 6772 12542 20794 92895 58818 10544 95151 27941 16961 15898 96875 88190 65452 28530 65336 71941 51353 20443 41312 40447 1920 41255 24763 17528 19083 14840 46407 31593 297 35276 77290 43920 72479 90946 45952 52048 22613 64867 27497 69085 11446 60888 31592 56654 79838 27530 44828 71822 63561 5664 74433 29140 31225 34375 29707 17411 48822 19692 41006 53426 13899 60771 49488 8693 91094 85269 72355 83827 76761 19230 54131 59751 37857 80201 97462 58490 24631 70643 40829 97164 1710 90687 37890 53999 223 10276 21567 18882 55060 23351 68043 55182 87159 56501 71433 43 89298 66300 8395 80535 4682 7620 20299 91592 48827 8157 24989 29311 43190 43544 46963 64585 46781 34377 40317 68602 83909 84865 82999 28051 29142 6982 66161 52692 47717 33245 83507 30542 45281 73867 63232 41153 24565 80764 53780 60198 37133 42035 41288 30999 69021 99998 28754 37630 50617 52277 56519 25511 43041 95460 10978 29224 9084 27229 66933 10469 77412 51552 89142 72501 31415 67093 60596 70967 77676 18918 45267 59527 51394 45065 41158 76512 77861 95049 71978 73820 38086 72587 41911 95199 89183 12175 24994 71896 11909 41683 54110 72659 88434 85941 5531 17772 86646 46373 33570 59687 72932 65138 58186 87976 24325 55263 40619 6356 14468 73495 56261 39294 50851 12354 9859 57417 82569 43309 71364 79493 54452 17164 50500 4687 97939 11598 58022 98986 54036 46978 87327 56176 41698 95510 18931 76296 92335 82375 33476 3045 80515 36921 27834 44604 73503 14231 57225 41900 34980 98119 75340 35412 80820 35555 34169 18823 37022 41149 43529 20011 32502 56372 60667 32421 11150 61797 38873 45230 8350 75 51710 90557 76261 98982 79690 75315 32521 32289 37640 98467 94793 67283 87053 80760 4586 3477 52731 29002 17078 19259 68150 37741 9882 44207 54889 81000 32334 666 60570 87474 57753 91441 25154 85909 23724 2490 60200 86078 26866 46320 19702 32579 49840 20445 65239 69446 15707 44881 21181 2396 27381 56393 91909 67169 25887 88547 69395 99550 66110 597 66559 65333 6266 14996 82763 81525 7894 94544 24984 12838 21377 72098 98617 67614 58692 77918 40868 1982 93936 52047 58210 8485 77393 56977 66428 70857 20603 9777 62569 34193 23175 19331 29090 30354 22439 26086 32595 94355 83437 11566 64716 44513 89330 27139 96803 76932 41791 27088 94081 3908 46681 49994 44552 11852 99664 35312 41181 97956 15530 42276 54064 60821 84571 87077 48527 78546 14317 87841 47548 99913 75639 58803 74725 77450 98883 33868 28083 24987 10358 51635 94461 16609 26220 3102 89776 99826 59417 60878 81591 27092 11244 66679 68156 64605 299 16228 99853 27063 46433 41330 66324 27666 65881 53208 74388 70582 28064 12050 78958 31729 71847 489 65803 72567 62588 98806 33705 4651 20403 46309 56127 61885 68154 10206 55414 2474 34573 96799 80559 74335 12126 73888 91193 4233 90356 4768 82897 77747 91988 59502 21169 32395 41122 79056 23871 67500 1039 93380 9116 44879 72269 88418 51491 63711 21071 84015 87050 35755 93074 20769 49954 88367 91267 36415 19858 74132 49308 98459 69674 38685 49863 48459 19628 99971 52819 47215 99863 7631 5497 82830 30484 34906 89456 79900 30333 64769 17070 68176 58216 36852 93793 73424 29595 55948 20273 79417 55174 91389 4996 75727 73379 35093 80360 28267 98537 64215 49347 81159 41306 97374 32359 93568 96598 29074 12334 61354 39467 12732 89907 52733 54314 36328 14251 93149 44344 92436 97095 98144 39463 17563 41282 39373 44213 58962 71649 85705 40832 35403 32452 72735 3276 33209 39476 5641 8214 32229 67331 68936 65315 37056 70126 61136 6175 74698 60455 10673 56313 15210 19627 54298 73693 34242 63226 30582 35928 24841 94925 17111 24321 69640 53358 65897 13712 77140 46551 67310 84857 84671 36195 93641 83917 18670 20235 95472 27170 3352 22794 1595 11179 81850 28561 90132 92955 2748 6853 34570 68388 84289 40810 78779 16463 59864 12859 87922 4596 72773 72565 66317 39999 46976 57025 6717 85102 82532 76712 23350 7225 56082 27560 74002 74997 55751 83883 20832 79881 90805 62640 62138 92733 71393 63141 91989 56591 89065 10593 95559 97297 85246 70376 80622 66046 52908 19768 5479 56409 36349 45317 80380 84881 10180 4811 34389 68766 7048 7203 95355 49778 24140 78150 19473 65000 57349 87521 20018 93949 26089 99456 14185 8055 22186 20243 88747 91367 50119 29833 44303 81056 41380 21584 13017 68048 22894 9225 95666 67173 90892 61635 50494 24967 75993 53388 57150 98014 14521 17879 89378 85837 67139 39838 61618 80280 3367 75056 19558 59995 38525 50008 68275 37732 99658 6499 62438 39979 10058 22863 58937 17919 40259 62497 16650 9789 47846 72703 97360 99791 77739 86230 56554 92848 56890 27250 20813 35263 36105 77900 46992 91901 26849 79913 20174 99828 70813 71214 8977 67407 16810 80168 30024 9381 64096 60840 98460 30289 97174 14247 31939 11650 87514 41890 81576 40799 49204 12725 93935 76878 47442 15120 33918 18379 95241 86067 70173 49097 12056 50695 74907 11438 50572 82479 6100 37610 28892 59282 58832 65427 38611 75253 37430 679 29696 96161 84138 41287 37160 1812 62207 47334 9469 99484 52809 57333 73678 4692 50243 1586 11183 29638 34325 7996 50371 17496 15621 94125 91000 6743 71533 23636 14155 45327 22415 925 59488 94609 38549 79599 75479 96441 46872 48124 69110 61428 38861 72058 20737 99275 40477 586 34578 23102 59395 159 15932 72193 61119 8326 95865 71171 35389 84824 40933 89693 56701 86292 26704 48069 64708 75605 82616 14116 63305 13310 13883 74487 87740 28923 66483 45601 73382 6161 70058 1630 80906 98245 37784 18269 9738 42316 1846 55865 72099 89901 71614 164 44067 96565 81942 95021 15742 82606 39964 87362 53795 9317 46815 72755 39108 49273 27517 38364 59542 32554 91773 20956 89458 93017 31352 92787 85771 86752 52510 9110 60441 18664 26715 96015 86933 98581 75630 53438 61012 8738 94800 25136 64957 72021 67026 66273 23464 16399 35987 2394 46314 43664 17519 2346 15783 81917 3223 9929 46239 56288 97688 53269 43351 79473 85003 69276 28039 38404 4153 35212 91800 99015 4914 67735 89480 73671 69629 35307 93883 89528 78788 39155 35097 29881 45776 16615 40187 28766 78086 70457 26749 10365 32085 24405 97500 89847 37637 95352 29573 94194 55860 41657 44082 20994 74791 40026 80907 42715 42485 91383 87151 94977 33866 73883 38319 71296 76915 69970 74290 53313 8752 29721 98997 28929 9259 85563 64988 55493 73298 19046 25956 38932 21961 78591 61096 85766 28103 63495 44089 76613 16278 10808 18459 50557 51740 31826 48541 43857 98154 31079 36507 92819 83786 45979 31107 23371 25308 76565 60819 11309 49643 10240 64778 37376 46258 94101 21998 38394 73943 93786 55963 7708 3807 95121 60825 87780 45075 7290 44652 36836 13681 46840 66410 19303 4931 88376 79569 65750 46589 69357 2147 95612 96807 83614 12391 91785 52960 38232 43139 1237 53347 27349 62161 67634 48433 12172 58014 99156 45138 22128 46213 54679 15164 24614 6977 11631 21406 43887 5977 40801 53572 55185 99393 1976 80209 89443 37134 3926 52453 97601 66427 2167 86049 32979 16912 91707 50452 60225 82826 47623 70729 62151 96812 34543 90833 64742 24646 55021 30883 36432 13837 17432 21152 65877 54830 59099 40523 88047 36525 66042 38229 55329 64927 1244 21539 40329 18516 15777 1551 15875 98632 84178 32611 65725 57300 6838 69861 21431 80864 29125 53897 2262 22902 55620 53169 43472 35825 61369 77547 79826 31435 85204 665 98785 87141 70332 74845 3254 68003 39984 787 41446 4312 71261 72016 58111 87681 61997 23967 24665 4118 71825 48136 35274 95887 56037 92709 83315 3553 95547 34670 79128 94750 27856 17259 22865 56286 26017 21273 61549 7517 58486 61381 9979 68508 83323 62312 97484 86662 47916 72894 19754 31562 35326 31443 28731 16656 56653 42843 55154 42083 95123 89678 76462 69716 12695 97772 14815 31496 13363 97101 66820 55584 95541 9560 48820 71745 16056 91669 76230 1740 71316 35546 94276 31153 21663 93572 81431 37173 56183 46515 60563 66785 38016 37552 93919 47014 71519 29856 28390 8672 87651 72679 50249 4829 80961 1236 694 60824 59266 86383 4462 63783 56100 80241 17177 66636 98103 89055 55249 80894 29923 15315 61790 28492 62293 10128 74164 23793 78470 57757 7410 62994 55704 25384 18300 25803 59228 49520 19196 99303 21901 36605 34264 27361 70953 95760 68825 15838 30793 42817 62237 90101 68931 20632 17868 1511 99602 91884 30944 30563 95357 29433 11941 77090 93110 78072 9544 16299 5440 70133 74118 34547 55421 41322 57697 78369 69985 94410 81989 63048 12671 14718 65352 17748 70975 76680 43310 23722 94608 21984 61872 74969 79260 66033 84333 5305 57810 38954 33199 49452 3645 37781 34148 63814 68295 49838 53077 22270 1086 53895 80630 67495 52949 53586 65428 10281 19433 96354 74311 60378 47240 37250 92157 91282 52401 29675 21546 13202 71603 73411 90819 25789 22874 50682 56568 56256 38557 13556 85324 18715 87497 23461 26132 71753 83464 62829 24004 3502 24063 29267 26979 58819 18105 86285 14472 73270 39250 3412 68130 8941 42174 12609 67921 44275 30026 59447 13464 36243 96271 33282 19890 12328 45285 38041 93575 65967 92319 68785 2491 19007 85135 14044 55927 8529 36792 50875 57018 51610 4129 66228 17214 24894 66809 43945 67027 98757 38059 66985 35956 85492 64016 41201 97069 75734 96190 36993 85871 6088 46570 21866 4715 33332 10603 49225 90793 885 26010 34629 24439 72380 94321 2814 92226 7321 37799 27897 29588 76135 64805 62437 39924 64462 50488 73258 58038 72887 11281 73345 46335 93320 72441 38975 52272 80709 64119 86 45830 66896 22739 64159 75460 6198 19757 24634 63970 24141 17294 41284 71067 92162 60424 42852 93077 40176 35731 88450 98512 82327 97234 99277 57199 20655 73309 16467 1618 18413 9068 63737 93031 52808 62409 11697 14306 32210 86727 30144 85460 29206 97306 14563 80628 83809 50314 8902 61682 57528 33664 28914 37474 95771 87410 53006 58808 64635 57498 43858 91512 84018 38771 30127 30396 27616 16398 68909 57520 75852 41836 75072 84763 57352 56043 91019 62945 56781 88403 62344 54338 32944 41768 90185 34563 40431 20385 78718 30880 39541 70545 97252 62012 35935 24153 50722 87895 21476 89832 54289 1166 91166 63201 16614 3988 34277 73846 39981 82059 46592 95737 23264 88676 52234 22862 18953 46206 21619 79524 68587 38562 32883 30358 96536 19550 56530 84356 25602 39216 44397 71387 36815 29705 2034 78435 47195 12454 52425 70137 44349 60513 47316 63938 45527 67423 80361 15566 15019 31461 62099 61671 67046 69641 27914 40731 62297 14416 52535 57999 56560 83150 93559 19069 1199 88728 35334 53474 60790 42096 22740 25089 3248 92766 31986 65774 90590 60609 84624 62494 77063 79320 64250 30620 25244 87163 56741 69916 94533 69087 82687 12423 2882 53458 81242 60807 93395 90666 86280 83436 4221 39166 42443 10099 31224 93168 25954 9603 99053 61652 48371 56663 95890 89182 14351 73154 6804 77953 110 19442 12228 61125 2385 42497 95421 31274 225 18544 7790 71175 52005 12606 18798 11188 47703 4235 92627 76622 20222 33049 20702 11859 7873 98473 67867 6122 56605 31706 30993 86268 92008 43359 52698 88675 88455 4744 59057 46026 2988 83639 85900 88280 88976 14128 50502 69264 59471 25478 89290 45408 30495 70315 87544 38669 46863 84981 11590 45052 43662 45909 56555 95643 22501 99634 34159 73588 52827 30097 37997 87720 9014 26163 11798 33175 34319 20502 53934 24632 26206 97074 71276 12336 95978 83396 91356 56694 89537 6675 77783 92248 43629 69851 59478 26679 26181 71085 42240 55549 71327 87903 83405 37095 21986 34312 63692 72997 30607 94165 93097 79740 52797 81282 88886 58255 18163 82484 4830 25007 97917 65320 79797 94145 60726 74947 2328 78007 93003 8249 93726 31000 22617 34029 12762 7102 14964 81827 12684 5001 66857 53737 98042 16075 91252 96006 4709 69372 16328 1065 39503 18364 49627 15415 12951 39959 14778 86920 22709 57700 77666 34447 79269 85272 65927 74690 68603 5459 47 97928 42751 9899 35090 74784 63506 435 37652 95387 41816 65128 88195 99432 4859 23014 44681 2712 122 13721 7333 97054 92194 51098 77189 11415 70002 57738 75241 34383 51532 20251 25207 53491 47255 91801 16263 4846 58197 16539 29035 98193 90379 66108 5617 8773 23787 85725 1891 61240 24249 60474 45999 27633 76145 84427 49424 5287 57819 91370 20780 42849 17303 99492 40110 44337 48946 46534 45252 54832 11613 93910 75158 40610 28721 7975 17101 31233 44410 20044 16281 131 41990 74494 43758 85394 27370 37525 71138 74560 63186 42389 36379 17904 88722 54729 15915 1033 49338 90760 26461 96092 39667 15587 14874 9428 54712 83500 71665 51807 43078 59910 64447 27802 18139 47552 72827 97575 39009 38014 75285 18625 40084 46823 9746 99242 11160 89557 67884 48686 16664 78832 29617 13912 80144 94689 83039 71267 13897 92821 72955 68258 85261 5207 93633 73093 21684 34974 79042 47256 62454 34395 54700 59844 47924 77414 53739 87360 79218 4276 48537 65832 73754 68995 58213 44557 90293 16622 49114 46186 27307 34384 24505 82293 30463 81595 82324 579 16657 63253 34777 92459 57502 3272 77288 46648 16095 13074 39840 47531 71194 43698 2393 40881 11891 7088 5066 65562 52190 70515 99642 89970 7344 91943 82168 65791 59631 96911 30796 40231 8404 10874 10313 39581 45374 14536 82589 43490 16714 83305 50454 41530 4822 22974 35216 25633 97830 18444 77818 77655 22950 15108 55120 63409 80943 67167 70911 25314 5165 56244 79891 8058 49809 77629 67206 85556 99502 10423 42231 30529 19430 58867 6976 86518 65941 58847 38128 56678 86916 36301 5674 18006 71800 24545 37266 55528 91965 2792 41553 40991 60904 60747 23333 63421 14320 1034 71006 27748 36171 57158 35846 72212 81296 87958 66729 5017 5972 22684 2280 17283 28508 91358 80633 1568 93270 16904 58356 64630 98243 75938 10024 5854 10004 63965 46678 24087 95067 70763 11778 98487 37807 50735 42879 72895 61088 1720 2765 11090 16985 10406 54760 95213 25690 60292 93587 22338 93139 7432 48148 81720 61318 17600 94811 57895 67371 99404 40992 79414 88163 4368 71150 90175 14422 3854 7165 90027 23081 58564 4005 51406 54321 80822 36112 22670 11942 69728 86337 24865 29516 54046 51224 35642 18660 65799 25813 81050 97756 92362 60944 33858 54346 77763 65302 22071 90000 872 94267 58169 44905 8034 91378 49554 1881 31301 5430 49879 95579 69732 42356 79475 84534 24892 24018 34156 80365 62880 55889 5763 19797 68586 4345 34166 88227 501 45453 87719 90396 23029 42901 50179 9506 50977 75435 73457 93800 37204 60253 10014 69394 18725 67949 51784 86431 19617 2552 14602 85365 14672 40556 93682 57040 68380 74808 22458 5915 85034 89590 21518 49030 84045 13922 83459 10549 28693 27050 21064 8047 90922 14942 26372 21751 6038 13980 50513 69478 9218 61412 43670 22839 83245 42996 70016 76086 19900 2448 57661 94356 68084 35980 83594 27340 9949 94527 13914 80997 98850 52238 30801 55452 96606 27339 22482 17423 81355 97706 53518 9928 44517 77637 36974 84317 13917 99714 78750 4734 3797 16814 5109 40473 13995 60104 36739 88843 93924 88410 82730 1972 313 10937 84228 67205 44847 45834 19365 19678 98827 39848 89606 37060 48986 96527 65140 54233 86656 43680 23191 25219 43735 30053 13296 41109 56817 17773 45160 22305 7840 93226 42762 95188 57189 80163 8280 69254 57551 75612 16334 79416 33477 60232 9435 55984 10404 84563 57588 95175 96592 28780 59576 22190 30565 95981 57471 8608 49683 18073 52441 94491 86887 28033 77816 6523 46897 81423 80257 24857 24520 42856 2953 55841 54272 8146 61092 59132 78381 99676 12213 19980 88875 58646 44265 4863 7980 98268 85110 12648 40628 49565 94344 93951 61582 4429 98127 48499 32216 42682 19283 44358 34466 63643 92795 71985 53529 68511 20523 20704 15218 17315 53587 66750 99232 68250 51930 48233 53255 24582 23190 20900 42546 89671 1911 2990 33204 34351 89376 98908 53039 32658 41304 40091 62890 45949 54365 97135 49913 7086 18089 4124 10115 62374 9322 33022 40024 57167 89205 14775 6543 28098 80716 26459 91056 60466 73532 74590 5852 45390 53477 24532 1870 39120 70039 35042 84173 10073 43515 97599 30100 79283 14817 36395 71087 16648 86272 26824 29734 4098 33474 95802 42742 65477 53455 55594 97959 88820 65526 71011 4918 3812 64393 14976 62619 63567 3037 84820 86793 63194 41115 64564 74937 17274 10854 16637 85329 22157 65377 1935 3980 74673 27298 66012 87458 1437 44855 95704 1979 19181 25948 79174 54482 87500 29715 86588 50677 44031 46731 9253 37161 95431 89856 88258 4213 8110 20150 38351 44919 24077 49203 52395 63768 7567 89352 50286 44075 13114 39099 5780 71044 77360 89457 4186 3133 74441 78097 48221 46860 74044 13702 95787 48858 79685 41525 89038 26481 79516 75637 83968 77424 78084 70302 13395 92939 73620 51122 79160 11678 89827 28363 23611 37115 99422 80741 46609 80655 87579 43427 58608 93888 20314 63246 93970 75591 30997 35698 53964 91999 61753 60779 19714 86104 69643 18004 68781 85341 11973 89374 49498 54519 34807 68883 23918 47644 1741 76844 57001 43112 82684 61860 38250 2089 52965 68186 50902 78116 92817 60640 50448 39745 23996 24974 78816 98311 68685 45792 29363 36347 97997 3526 61224 50062 34281 25247 29397 75337 89598 41759 31126 43201 31961 86523 16268 24499 67317 34126 56450 41924 26280 955 67270 44476 68770 30478 13900 43601 70407 94865 26212 5072 10888 60169 9272 48711 20581 87723 81436 25673 74231 5299 15926 63710 89403 37349 8828 71307 95931 54067 55970 81907 97009 32590 36240 89702 51156 60322 69598 35043 77164 19901 32197 43210 26670 695 86132 76770 48489 10960 89417 50242 80827 22828 20396 43828 13424 23768 57797 43946 7677 2855 3952 49061 34765 97491 96501 599 38863 21032 12467 99896 7281 8281 72849 37959 84862 6441 36080 25910 70365 3528 51753 5327 4977 67877 76865 20901 40094 37288 51146 20742 7313 72717 78362 10900 31856 58929 27439 31066 26769 20852 38 90600 69968 910 67908 93756 96846 42851 49827 69859 15569 36479 57380 31395 14145 10713 83216 45169 53672 77135 82977 62574 4343 36667 47182 45953 78837 93796 70889 42065 34478 32524 64485 30706 79706 3414 29020 34822 64902 248 19604 65107 18822 99011 27095 99838 40189 46467 62877 39687 66836 64344 16464 64374 36828 17085 86819 71988 81363 35591 34422 26600 25334 70307 57012 92082 11723 40399 50250 42871 63560 6039 4587 12615 11657 81412 20965 41047 64252 89247 96815 85397 96727 78661 21388 87834 79366 68648 45789 45597 45602 3804 1346 81647 28475 71792 31502 27761 49187 93027 84269 72747 11076 37199 63743 89942 23548 82554 484 5541 74733 68808 91257 69966 20579 40014 22597 78762 18561 27727 25611 41264 7945 20881 7781 65525 48117 8012 51355 91551 44987 4738 58093 14657 6073 30949 56190 842 67535 90525 27303 80478 61547 49926 71304 82696 84296 25606 33027 42909 19223 85190 38892 35658 81158 7250 4915 43885 7599 1087 99036 34003 3177 33984 34253 26015 60906 38992 96999 55284 25254 40209 43202 95412 82295 78712 10871 44889 89026 47766 64910 98387 59440 32175 17591 21097 15546 96275 5910 42197 4435 79234 11717 52860 22242 2818 18568 37859 83816 32581 35440 99092 70085 8571 44027 37192 81584 30362 98756 45849 30914 96720 25239 97748 25364 52382 89919 88570 9271 95068 63440 94153 31780 85038 50772 74797 46944 23804 30380 97065 74619 85188 43755 90243 26247 41 81824 69512 26464 84596 74617 75384 57102 75902 75399 485 53720 93000 51306 445 52195 81816 89823 72760 12208 50337 45928 25770 36601 90403 17813 40574 10755 99328 2895 28734 50836 46712 9312 78737 62474 78011 11813 62163 41273 73370 89170 28720 88612 33230 87087 61780 88650 63155 47856 5225 60712 73968 444 87821 91948 79353 51158 64195 42057 38320 31345 30374 3868 87655 43292 21257 78694 41796 66942 14082 70094 63382 128 79642 95128 95567 41469 38717 40978 70750 24059 91224 62110 4068 8666 66331 86265 59032 83516 94602 64132 63587 80996 62085 16578 96001 41681 89743 3777 4928 81714 41687 57620 90273 58942 33250 36547 14150 952 29119 62419 86805 168 32390 51414 56090 21367 89326 39558 58110 11981 45000 29141 58425 60789 33547 66431 13578 79463 51399 93952 42878 13334 26799 72691 25860 30318 74642 50731 42986 82298 80715 97197 93555 52979 51713 64442 28529 2842 41404 8640 30141 80456 89147 97968 8428 52615 48621 19740 91721 28752 86786 24080 46205 41370 69943 65940 41285 17433 49969 70356 48396 8290 70344 60116 96258 58551 50631 47038 23974 66943 66090 2319 6216 480 53605 23999 70615 44696 42172 54707 56751 2024 83755 2019 76793 53939 4885 22602 25613 53549 24384 37316 21660 43492 15185 78272 81486 34787 4451 31342 14330 48431 44990 11540 57734 80033 33857 54487 74615 19008 96484 93182 6449 39127 41659 63041 99460 30037 60250 50606 24315 23435 50437 16216 52557 10577 5961 12520 48131 89313 16794 32392 85067 95192 37074 68068 508 76466 37946 56264 60307 47505 95592 57889 24822 22978 55923 63482 42859 20874 86552 14101 4912 48829 89063 2435 41628 61406 73670 97059 94900 64424 65303 36844 41727 93870 67134 58099 43905 62104 56303 12339 75886 6217 24804 93827 96254 51968 6487 91337 13220 74211 40935 2476 67836 43760 45828 4350 62479 92861 90450 39682 4066 67886 56411 65234 24345 20370 89488 51368 53615 95031 4572 13218 24223 5217 49959 36291 95041 85760 6205 4514 51825 69687 85296 6601 69218 76037 96689 71570 63025 78196 15825 13919 73800 62257 89956 12071 614 15845 77200 93032 70647 12151 87373 21544 99403 52167 51360 30496 89128 69682 93311 71837 67581 40736 85740 9712 12902 96422 35469 12380 23069 96522 85396 5161 71999 1238 95942 93853 1823 89928 77932 52151 11936 44461 6481 97307 65771 54202 10121 63575 84772 92494 87340 26304 18658 67392 44395 30147 15897 28288 69776 17595 80106 19650 3200 93295 73880 74159 42979 16280 75304 60047 6 10927 19149 30287 64527 80235 42531 84483 93645 79675 75550 82494 19608 82647 25492 60234 37253 86995 14181 31141 17906 70434 42786 21373 48479 61169 83522 54517 71488 5622 74210 42868 32799 27906 32418 10402 39335 4943 85070 2296 38559 70032 95751 82847 30256 70969 32350 50456 86479 11175 42306 12327 98689 77579 34198 60213 41449 50853 80018 22975 638 34032 39415 93039 13557 28380 25760 47782 32717 3969 86717 44386 83590 52732 6492 75856 90577 7673 63329 10820 53054 37269 22438 18203 9478 79154 84400 95493 93654 54910 35013 14187 43971 71726 38157 46744 56181 50214 23417 61708 34082 33034 92412 553 91775 25346 67152 66479 56523 7003 10757 77296 73935 82883 57104 62314 49662 82493 48877 84873 95697 24676 54292 90125 9130 48102 7474 73088 80353 25959 69693 22472 8538 16320 90918 36905 23259 38794 23013 62168 27256 7198 64520 29018 45465 22514 96645 88459 42941 33787 72364 76676 66754 47303 41261 19351 90908 31814 14786 6579 59808 88801 20022 9101 65566 9384 17743 28812 59922 96651 52144 46999 87228 69197 22804 95590 75661 22117 23831 95861 56569 85825 15216 54262 8911 85512 73751 96398 79054 17753 50560 29719 10754 18681 21702 69990 28853 81557 29485 392 68468 46623 44404 82055 34454 11471 70583 14492 34934 35320 12789 87128 92965 47529 52739 77044 17343 88622 71651 31176 55573 80195 86445 60015 93746 93242 87138 25038 37135 84196 67393 64366 39196 88268 5539 34959 78575 67441 93691 26633 46446 92342 93676 34973 2731 46401 21884 31258 60394 85481 95868 43520 10237 60283 72511 6443 86747 96404 81909 22993 61991 47011 70075 55783 90658 77513 53534 38039 45194 23904 32901 24587 65594 50357 8083 72001 36185 63584 37071 65617 11604 76556 43279 82286 4490 96811 92269 93117 68455 34826 46296 45501 27325 47306 25510 36500 15942 36289 76161 49077 66621 59518 51245 98350 11393 32442 76752 75149 3731 38483 49707 53145 39384 81180 31454 67466 15196 90845 9781 49788 45155 89713 4711 15969 60381 35220 95075 38802 36311 63081 97091 56199 47277 38003 60486 81146 81757 65221 13161 94672 40170 31404 40289 36740 28203 21997 75462 65317 65587 46375 52976 12475 7816 74905 4854 42864 21541 29777 21016 60317 90482 29038 63207 16168 77006 28533 85313 37539 84604 22403 13481 61843 6075 30899 44783 17705 33017 42266 55085 21851 85471 67976 92596 53696 59567 92801 22031 75750 51960 59878 39831 57236 51026 34910 19546 99710 14226 17288 24116 52362 81548 47238 85843 57857 79514 36582 61690 40876 76525 95651 50165 37595 45165 16803 90194 30369 14159 79602 42 27454 29469 32905 54281 51387 73081 18520 79547 92617 5199 17636 67557 64298 1747 39519 64648 41009 94784 66032 89337 94393 78543 19025 16291 5443 96877 58768 5038 98500 78784 5817 53871 24906 62316 21174 3301 93241 41563 46043 88768 93201 22230 17928 68148 24946 5069 46600 6686 85764 57445 35176 8274 44664 51834 78595 28355 51495 25630 14761 69914 9718 43250 2310 85645 51730 80145 70066 66593 66115 77985 8432 94137 95919 42008 3893 14941 28294 15223 17395 8204 72741 53664 28885 45402 84375 34769 71208 42458 472 88058 95401 91854 30757 1930 13663 10936 57514 91002 77897 13420 52463 61130 71901 17494 31181 36535 40496 28394 6219 2682 46403 83965 87214 41546 93908 63088 72888 60999 47691 75625 5478 59560 49769 78815 22076 79111 30443 8791 59201 36513 46505 1102 13740 68210 75406 98115 1677 54121 68115 14387 62612 33841 5758 33849 15274 57824 33968 77621 81420 40942 86442 79582 72068 67776 45106 93271 52969 61757 97908 57297 78503 77105 86363 43849 66738 84771 13447 19925 80562 57336 3974 76624 14206 26665 74420 35435 12706 36050 67633 88444 89936 79437 69291 71905 19752 5886 19078 73126 14628 52529 75730 25469 17383 77943 32492 13312 1559 6690 77487 22820 95039 83871 84990 68088 82491 46485 75163 96272 3558 70567 56215 92511 61587 67566 17186 37676 35094 63179 68423 63052 39311 24834 30151 84325 41346 39330 98905 28465 49541 79890 15928 51016 71395 48370 39664 89371 84143 68100 81155 79628 5280 81656 62600 92865 31198 76020 48556 28341 15021 65160 53728 95203 37221 31867 92513 79305 51395 82376 4908 57085 66801 94366 14923 72905 64420 94093 54498 26415 39077 2774 58002 15666 86693 20721 51909 86636 76034 89134 13700 73195 69371 87134 44217 91445 5883 60476 42422 89224 33645 31012 14021 73616 52193 37911 69053 36362 37127 4688 14770 63983 14333 51039 6709 22757 43295 21977 76970 94017 17113 57304 8291 21787 77514 72177 47073 49888 67612 99920 73209 64046 2817 28644 971 36371 3092 80390 78113 12147 65895 2903 34682 98343 24996 13507 58592 42683 73431 64047 83088 57140 8451 97392 42603 61047 42404 12005 97536 34295 9299 98284 88210 49626 51013 90772 97377 82381 88094 62196 83562 59705 55232 91046 25979 22218 87955 88174 17098 38168 31793 19513 85130 48026 11997 74627 36573 55511 87445 36092 53333 71375 18406 31984 21463 31059 77569 83670 61129 14597 87846 64555 84644 60226 53198 24351 44251 80747 42340 80513 3415 81963 87698 89113 84405 67708 22087 81273 66412 71359 52013 1410 72417 68807 69809 18641 91261 70760 99281 30278 92714 58546 96568 2794 88521 54416 14060 94915 35242 33910 46671 75006 20683 29406 30068 37723 91157 19743 79856 50909 39256 46855 92886 43740 17324 4017 45965 81552 78771 71057 13072 61066 82764 84957 50555 95670 61221 38321 92919 35705 31469 34276 96665 99956 39971 9617 79562 67264 93984 18730 69206 58129 48679 1745 54786 24647 93671 53747 4103 62253 18171 33371 54470 95312 42260 63369 63296 43432 64209 96889 12772 56628 64634 9619 18590 17542 23883 67576 10458 70696 28058 12247 90744 91044 10490 62413 7094 14106 82760 65298 93972 65556 45599 42494 12988 41155 74884 68119 45253 60448 38110 43114 95036 65386 93345 86825 17752 74431 19800 23581 5884 83 1360 64265 93379 9792 66502 53444 65273 14108 78660 74744 2909 55660 52315 69982 72217 48935 49084 24436 22606 57020 60724 94524 18974 94918 20975 17466 1085 21519 89704 45772 78295 11827 26052 6618 30301 88670 8335 26244 9737 28967 97320 65484 90364 50068 64624 35339 20705 990 51734 14910 72719 25204 57442 37867 24217 54351 33739 98910 95301 38109 44931 15545 83739 55945 11716 19496 55678 51577 66039 80509 71283 58286 87284 37445 19850 5554 56646 45299 85066 20916 40958 995 83702 54505 16535 3829 62765 49945 75421 78031 56219 20285 55101 12861 99515 20195 5881 37090 35565 47528 29237 65063 91234 15028 23009 75552 92625 86283 26937 45636 88302 78798 42149 10076 45832 24593 25455 33875 11583 53975 99885 96494 49043 78191 10270 33661 51971 20490 80192 60646 50392 14912 31759 8093 81015 70963 52643 18786 46614 73985 16141 85318 26919 97442 32302 38233 42188 63723 46209 48868 84022 63531 19762 67143 12717 30698 78921 11252 89455 66637 73705 18454 17168 96978 37704 97162 96964 43312 58783 49699 17016 30371 55265 82316 57495 99666 89993 98695 8170 81814 53063 83117 44451 35154 52872 13255 95719 37653 82167 56978 90357 83524 46257 499 71047 32932 7485 92577 86339 26458 64720 39673 24133 63290 65635 38744 68480 66774 49504 48976 39970 89622 13038 65245 36613 96795 52944 32580 9844 88719 33552 12417 39307 32366 63135 25422 58414 75220 6681 82828 83850 99315 54806 52493 48043 71108 57274 44650 58963 45871 70022 39988 42190 31815 24956 75172 62825 55918 38125 31544 5348 79294 97952 77819 20815 21303 8341 20756 82987 8927 44345 14248 95834 20622 71176 92031 20531 64027 446 91519 32769 26605 99949 91683 68399 92131 52427 57307 19044 47232 38082 23484 39010 75584 82602 71658 96871 72926 48985 36617 42534 73019 39955 6505 51985 27429 76412 1379 19733 94678 17869 93331 56942 62291 50417 13370 87350 66532 5476 54552 19411 32813 73222 79075 21229 70950 65146 94654 4432 36009 60775 52007 40932 84169 21858 20979 92079 7580 80835 65645 48134 42963 22760 33201 17353 61190 54403 59980 68652 9049 10618 32206 87632 99916 92783 74119 44809 27035 85131 92275 67528 86334 85980 58176 15977 91285 67580 45736 30743 23220 98012 47347 12436 25881 57286 9856 77328 31970 93593 94779 20830 58051 30893 75267 24221 85326 68998 8465 28207 1866 27085 13811 36662 49604 93235 25740 83031 28701 80805 16575 36178 44104 14042 45060 52406 63735 98568 94855 24236 1354 70886 8454 72284 71390 4882 59619 60343 11230 35114 60519 53567 61920 49323 9833 15022 1198 24980 16201 10306 65612 87115 52573 89310 21991 38965 85732 47501 9501 18221 53235 23011 22770 83250 32317 44836 94488 34966 12702 94812 66507 66638 46961 34835 32109 99808 85535 47105 11793 53709 72592 45204 64544 15741 7056 42434 28273 90707 31647 17757 9510 76047 38167 12663 26391 98408 83389 4448 41133 57192 51687 35641 98381 13480 69909 84752 5772 53319 53464 46133 53653 41781 90745 96558 77387 26934 93519 17321 69873 75823 48075 93558 92551 37693 70535 34275 88388 8514 96908 28417 59684 87195 53407 2162 43896 47606 80582 18415 12729 98659 74331 6019 56048 74876 89851 10246 32209 87154 98483 28596 24407 73315 23993 44127 65010 19334 54874 76782 86892 25200 50800 67891 57901 55252 67475 70417 49632 27193 22424 25280 14868 24604 38382 92687 62618 67982 92433 87956 60687 90409 99353 80263 2985 54694 50685 89829 72947 57884 82655 97839 34008 35290 58836 99790 71706 81954 51213 11530 16274 92010 43282 52293 42748 89479 43004 18169 25037 40410 17531 53141 28491 77026 29745 84108 90212 26489 21156 66649 9838 47597 24158 83542 99189 44319 39183 39484 37659 66409 75169 86386 83335 11801 29202 83237 99588 32945 21647 70049 15145 5525 45170 20006 62367 64055 94055 54058 13688 75689 70300 6729 44691 53457 36449 13722 92167 46894 49794 42713 61274 25932 65224 60156 26525 60564 77521 2785 96231 13870 84181 64727 88104 20473 73931 82025 83211 1134 80491 58094 58372 86394 1490 98495 12040 30627 34318 36868 23592 79096 9062 40479 74096 10127 70597 87915 6773 72437 36498 98183 24606 44573 18902 64815 13749 57308 7084 6755 49902 49703 24353 16492 56822 95026 7109 47437 8980 79948 10964 11399 6426 16332 72270 4240 86376 66827 32436 63102 17926 92132 4881 58451 4975 34510 18240 21416 86189 11108 68532 13461 46218 60926 96489 47168 18212 12118 14507 91689 70316 80521 43253 78977 75042 51190 17197 50752 7493 88677 28029 80668 20305 44940 43435 39921 12720 86195 37831 73304 44014 40080 54692 90840 36236 55921 12603 14539 58719 35724 77536 92092 98815 72436 86349 81475 78131 40286 81049 20121 22810 99169 75846 72411 42928 53224 36424 3380 71502 77310 25989 96137 31695 51956 62532 58526 6275 70579 48471 40066 46525 76867 72941 17534 55980 58009 77765 6707 30044 11376 89363 24769 14776 35568 30724 11240 6055 15116 65586 63689 47709 68215 39252 52958 3844 36630 53205 65493 93623 4548 41150 50516 14215 60844 55320 77074 26004 98712 53865 61912 8677 27620 65032 40671 90316 51652 31711 94167 91431 15299 1981 82787 88558 25866 98789 83988 94825 77447 1651 21675 72342 49619 49351 45422 14344 34667 69659 65235 2835 66282 80318 3681 96365 96575 50545 33982 29886 97142 7612 92721 49658 40271 18529 23775 32726 92036 42312 37880 30085 50647 66804 55818 3566 39630 18034 4704 40490 87426 4257 38468 80219 58700 51465 58482 4976 74913 45174 12777 52329 85099 84320 3977 1037 97574 99382 62375 90996 49434 35611 16051 40715 31318 4542 20750 48999 96238 16382 99995 8384 14 36454 75008 30291 59251 35306 92584 45040 37522 79191 43361 49519 69507 58806 66936 26538 82214 92744 27980 28195 18104 90625 83803 25010 85036 49828 27682 13137 36900 49997 81834 34929 58240 17162 81664 64428 63468 98401 47627 4407 24958 27029 58340 50652 1045 98498 27102 10856 98087 24682 43194 30183 80066 35377 12164 64217 31460 53204 41661 7676 77745 99735 73913 67828 42016 28799 33377 35939 44016 16920 24450 89732 34100 98874 54903 78757 11818 15435 44570 90725 19001 11047 2609 86118 99957 26720 12597 83847 52942 89085 61376 31541 67396 88364 98621 19472 89233 66872 41539 63988 64933 28078 94206 33748 27945 9052 90605 40994 35875 84538 31212 29654 81869 37049 40128 38558 7691 54961 76792 9417 29012 76880 79315 76282 39051 65618 4657 36797 87245 23432 32822 87388 46079 50559 86787 79279 81997 39513 79505 47598 93667 25679 96062 62787 94446 81113 49649 95230 59457 98968 28192 51404 49136 5808 37591 21186 55557 49120 95416 38889 79363 68573 48173 54866 10892 19566 34074 976 22898 9324 96510 44892 43470 51849 51011 35742 4597 41119 77069 26090 94166 5198 34367 8688 76174 18503 21909 94020 18839 25269 92547 20724 47365 72351 92383 23197 52565 62123 23111 79214 9588 94160 34387 82573 16992 56342 2136 87932 95267 30452 52257 22575 25767 14267 61460 52118 70570 84612 44180 70662 21006 68713 6416 78914 48061 26533 40436 22198 1914 13421 81144 15857 72138 60437 65784 15835 99799 6327 74426 88088 72882 58265 23933 80745 96359 27961 48690 6032 96906 71456 8052 77608 19555 10376 62912 75672 35877 68121 10395 15347 69488 86184 21360 45827 26457 56439 41635 45242 14525 30975 17848 40624 90359 4303 11574 56722 34955 2425 98561 96474 73676 37937 31652 90886 68946 427 29327 91219 25071 92943 59420 56652 21822 72362 47426 93190 51950 16829 95393 75884 41424 30783 10 11075 20494 62704 84945 89977 68269 27544 64928 34441 13095 55439 96202 89484 25995 3534 55476 19142 11002 38248 46236 66589 30590 14456 31732 21754 68913 65671 45330 26165 47585 3880 1047 48085 44228 73104 19059 21649 93769 10397 39164 7206 15053 4875 97975 67594 11261 32846 7433 4896 70849 11077 19322 85486 76995 482 22189 97000 37972 99233 42875 80896 79047 75926 8502 43482 66795 13010 94111 95053 74055 64505 2036 27888 91026 95464 96165 5671 45086 94192 27998 88493 16813 2612 74660 45796 78177 42973 57083 93131 36796 85575 35193 41251 57917 83653 40698 15685 68817 60599 20692 45124 94034 73996 93867 75527 92083 28810 19061 13479 11414 88395 29847 61070 43046 97201 52847 29787 27041 16067 38616 92688 21176 73552 41694 77187 65407 58171 19694 2217 90135 40571 88420 92539 13134 41654 13338 23386 60500 63062 31938 40241 91159 95035 65746 28187 32373 71337 23667 81801 26629 6885 65471 23187 97863 37990 84123 14130 45847 83899 71814 60310 82582 59081 40060 32927 73957 64456 45866 83444 3216 71482 76966 8108 36094 18114 54572 27976 96078 19503 12943 70650 12836 85979 59741 70724 3885 24159 54849 63368 72291 94839 38176 55615 46202 56633 13610 61961 54842 32054 43319 65810 60910 15518 36339 81403 97100 14473 57538 76684 38380 9173 163 41321 34513 14636 72114 34326 73752 60136 56896 67518 72402 65397 6372 3257 65539 66853 83169 29198 25222 69932 70752 29640 18388 65077 50517 36018 13385 36818 26903 14000 11788 59097 6077 62130 60941 81630 96515 3395 25017 46430 80455 91877 19399 31174 19 57032 52431 49050 88340 5201 46369 89727 35464 67100 22003 32497 6899 98449 20353 93876 49934 10737 87901 25721 58088 33731 93716 52882 96948 29093 96396 39977 69131 38945 77053 46425 86279 82758 14652 35553 7138 5952 76236 94652 5568 33382 96171 15987 72927 17991 94978 67410 57595 78589 48947 66179 69347 91501 70613 79141 87566 68014 56069 91733 37356 84515 94739 78049 78225 96070 40288 1711 57529 76546 6447 10880 915 91457 93469 91228 45855 66441 58904 92460 88188 1137 26954 78327 14800 84928 64226 37451 33656 21592 33928 37947 57571 92425 81226 72803 16130 4016 11739 52701 46663 26382 32274 85062 89717 33024 38779 91555 91419 79265 60973 59154 64611 38501 81966 20849 72913 35714 82900 86434 25016 33883 44208 66405 87037 33406 74392 26557 65601 76475 78668 3524 84694 8621 55994 78704 92284 83763 5642 40218 28745 16159 79581 41300 21199 62039 21040 60189 59404 51247 57320 15718 78239 25827 2674 41749 11506 96900 21844 78070 87889 80183 13517 24847 19981 54529 22679 6951 78666 25788 48652 65228 4541 63920 1278 84834 30989 14698 5428 78292 19014 65185 52810 42351 98865 38577 3938 59200 83717 49357 64062 62428 717 27363 75768 64260 71611 15033 37041 6954 69332 20951 97011 9296 29608 28511 60215 84541 20788 16658 51819 52877 7040 51864 11745 21558 86374 64864 32743 96222 70669 58028 27418 10259 35862 78772 91845 62535 73334 49454 53556 75649 61978 38316 71507 68761 17620 81460 32077 77131 7587 20112 14279 73887 90634 93795 85057 18323 85902 15687 54414 4501 63357 92418 69283 41674 36647 20792 80898 29428 71531 53589 66010 63866 64767 71222 76913 81894 4697 1668 77982 72868 3235 11945 97970 18738 17967 29279 59623 1587 1353 46319 90611 18167 63005 55821 17940 77342 94323 77236 88596 95605 82947 96559 15479 31892 12251 32604 52290 12678 49381 10747 5505 18040 54143 66154 77700 19760 57720 8310 37461 61481 39806 65863 78045 93462 89496 84544 96408 87936 22886 30763 74334 4288 66250 50523 32933 59083 78054 7411 55179 22221 35296 12344 61858 10216 19909 93008 97246 28379 58052 87442 40559 65205 8026 67940 59235 43906 45944 27044 12549 85996 10444 42726 58730 12230 62632 51220 76561 53492 82250 12630 78121 63843 25758 78197 98052 60738 66684 20228 66848 18267 3832 20318 81481 32193 43804 83061 61982 48147 21783 28667 10617 16958 94127 56161 9326 85741 26855 21691 87837 50035 65564 26275 28449 26433 18928 1450 920 63133 11158 41962 89790 51801 3811 73052 73656 57311 57142 59106 21265 78044 25940 26338 14140 51657 13429 44869 75800 9100 89096 88052 30781 36822 44593 13108 79771 24257 4210 34116 99862 60685 73391 92972 59438 21766 69014 67208 9098 63865 62301 8989 85031 5830 71774 40709 57758 54100 5037 47132 3510 48983 10535 89581 60403 88799 92990 62671 51537 89242 47211 5755 97033 56364 25368 59331 66198 80955 76109 14443 61472 6210 66274 75205 21852 47439 73068 29250 62329 52477 59152 21193 5832 45862 40444 60506 32083 68080 11425 45964 76769 6357 71096 74032 62471 93788 84116 65435 25023 12277 43930 72692 20894 31887 37393 54929 62165 54005 44912 55227 72588 64294 6501 4802 4855 63340 57420 89903 95517 20635 74575 77444 80890 6451 90186 35616 61575 2948 33125 14604 42311 22339 82453 4840 66075 57141 85047 85085 63752 33958 84488 86432 23853 78551 42778 87197 54362 36978 85510 21338 81471 94309 81241 72111 99356 32239 76446 28270 98162 27755 23408 9233 81690 84401 93025 29394 1879 32448 73936 1088 71295 62346 10373 14298 54375 70479 53289 76228 70155 46412 42139 15340 58721 7765 89640 42543 94467 88762 73994 18563 94258 37237 8652 13752 88802 4443 49859 69213 90923 31726 22829 73583 79577 16581 8510 35729 15393 97002 54106 3379 79068 19874 79455 20800 72433 79461 18885 20521 64872 11593 76577 35109 60537 31976 47670 6209 67771 78338 18724 83177 24250 5483 47376 36190 95794 96409 63524 22905 59637 77243 28406 34545 99682 32195 80120 66357 79008 7394 62255 21652 35116 57552 83196 23192 28798 35891 98065 87785 602 25052 64011 41891 43777 97880 40338 69566 16843 74645 79049 81518 72852 43647 74675 48 90839 88638 34970 34559 12145 20667 69882 71279 30701 386 56023 98344 46577 21269 44333 73783 31040 98911 26098 61217 66975 41045 16431 46691 68809 54833 6504 34848 56394 15191 17778 48758 18960 37433 93044 12827 88633 99801 73264 17957 84486 37383 52592 48025 5889 17443 87989 99723 30203 21661 3172 9305 74950 10241 14500 62616 72942 2992 82691 39266 9972 60662 22707 19006 1368 53524 47119 74790 9673 79964 28332 44302 82000 54214 13790 13190 51932 32475 65324 70405 2067 46660 70731 17154 13906 59384 13933 50480 13905 57880 63520 9214 51115 54401 15488 34892 53299 67142 29496 82177 15556 70205 63218 47830 65388 70542 82542 58793 59971 69586 26761 43159 70450 13381 51025 11228 4897 53993 21864 33169 89194 47650 85798 36334 23180 32786 9286 38427 6909 62269 25709 46376 8887 737 80512 41552 40710 98203 65708 24003 75790 29404 85742 34355 29209 52291 58840 403 14431 17410 56580 716 18284 38058 48586 19227 59775 69901 27786 9889 92707 10049 58946 53904 68725 78520 41442 55262 31565 69410 76921 13534 55061 46200 42424 57154 6812 15744 69342 9926 30357 57583 81616 50088 67016 79063 63147 5936 14849 5071 12276 53984 53844 41921 97401 30559 77250 23365 42707 6884 19335 46160 11895 41534 17605 17768 317 89245 49493 82743 38450 60480 15023 96318 97529 11957 88509 85041 30345 26862 58422 65375 70994 50567 74520 10274 1295 58037 43872 43853 81470 6146 1248 49792 67613 29594 53527 27667 73135 45436 73894 44941 74401 94610 2047 46926 90480 57701 32252 88503 377 1633 54894 36747 37283 74951 62011 29801 35824 40936 30716 19167 44673 60296 85600 88428 30923 68838 7526 97386 60417 30332 26175 7796 3757 74150 60068 45750 87397 39650 25522 18602 44334 52108 27698 14700 37198 84924 60475 1765 61115 21943 94889 67638 84000 70934 32509 63508 80532 26270 77652 49591 33459 85851 9373 61091 85964 1462 14748 60677 76535 18597 18956 29685 25629 64123 71928 40515 42645 60260 74870 30342 67132 81653 15948 94144 25474 65114 36357 20282 5373 57162 23914 43316 20730 66590 91922 90425 65096 2037 35797 23792 76436 87074 83371 35543 26435 87063 97238 7916 33356 66444 24733 50341 57447 2659 39486 49832 77554 12091 32398 7957 14397 71074 72009 89327 77016 70670 88454 7269 33575 89508 37509 77213 18894 15465 99365 92115 3384 90361 913 14243 66646 27659 66403 37057 93177 44481 1753 279 82510 1055 2366 6083 25622 24759 86688 30032 33831 27234 71369 25323 56163 93282 57379 77267 96470 14453 16767 52977 14569 90318 97244 91144 3072 87282 2701 79175 5458 84093 34016 5454 26837 52276 81569 98031 82517 54804 33470 16853 83754 13786 15151 99990 16924 69949 80029 60383 46933 67746 60679 454 96123 59407 78538 36176 49147 63566 51344 16528 23246 37887 85333 67749 98493 38680 43429 61480 8686 89689 99088 74151 9141 60723 8312 39341 99079 3315 72916 78433 75686 35191 88524 59346 41156 50313 49284 63307 76181 98263 39167 61745 14865 36939 58966 80977 49717 13209 135 98732 37024 3344 65974 13898 82920 15258 97143 48819 55035 64328 73806 12643 34816 42556 63452 21583 20669 21763 64488 928 83172 89547 54664 4611 5587 265 85386 2086 75753 79586 74686 5094 56291 14096 84337 86744 11810 94231 29041 37688 84893 98652 49561 11732 71003 33234 92882 62886 18778 99343 57966 58677 71584 95126 19314 97493 16558 29211 75075 63630 64890 79503 71189 84467 73161 31093 50783 81741 97424 57210 71871 26634 68937 80107 56021 47221 23515 39843 98830 23141 49076 71466 48694 21178 28762 68815 19969 40313 66333 84617 77107 40366 26450 50180 40512 79849 21280 1009 26331 77860 51446 77122 60741 81311 67570 25176 100000 34180 73171 15822 32278 6354 77787 58894 34000 38031 26666 75484 12292 75413 31955 5496 31368 75961 61561 41081 5875 79370 15193 55977 31061 6049 22711 93448 51103 66488 15235 73721 79109 37706 68364 4590 41417 67720 49138 44676 24610 96745 21184 12533 2045 32394 43198 35130 26429 39821 15457 55991 94354 22451 88429 93164 73951 23215 64517 21009 86578 93126 47512 40261 84158 36186 54715 78600 98987 52935 81517 84591 62128 48202 41244 89266 89130 5408 38449 3609 40228 69323 39760 92863 18297 41745 77404 25855 85545 35049 8956 23407 3259 41686 92780 45805 11098 27199 57737 94297 39819 56004 92614 10913 10319 79680 5874 772 7969 33517 8589 74289 90012 4266 77413 69001 54350 39574 54404 65349 67859 96716 3208 73919 70549 66828 81268 47870 78340 58183 89898 56853 61164 37184 94525 6587 61697 41974 47401 22210 66287 14378 53031 98142 30983 12088 70194 61944 28146 50574 56169 43715 28400 29479 2307 79421 59314 13092 45556 97119 6960 78882 48790 47017 75367 66361 19698 30356 14648 75673 37844 20185 35186 71484 86657 51073 82203 53252 65490 63617 90070 26438 54816 59764 17091 49621 53284 6081 15961 77780 85602 33728 22101 13003 20954 62687 78967 57997 87270 10671 63363 42274 24812 27030 79836 27179 77453 59 46264 38704 8991 24467 61106 55450 88591 69639 64968 42915 71556 49041 70209 23580 85490 74689 16943 47351 96357 60144 2841 16175 74847 48532 58334 82685 39604 29203 14406 92313 25983 35796 78281 75771 98212 48091 89858 76559 8444 655 11491 25432 70200 74663 49122 42228 12298 75931 17305 82523 52059 17553 16454 65728 99989 72651 62516 41844 86191 92070 65356 6037 13206 37560 43580 30530 53522 79619 89137 71105 13362 74624 95183 10123 40704 93049 25135 41040 35224 52981 32648 28941 19386 49244 7739 60396 70785 84734 74715 64597 71953 10447 82667 12383 98657 30730 98220 32860 95610 28695 11367 87528 78929 89351 78112 12013 16934 10495 58545 77371 46911 27048 51847 71990 8470 18123 21214 18517 54372 81452 43911 75909 1179 231 5646 21946 22496 63572 77989 98972 5916 27875 62411 26950 4193 91116 9037 76180 5693 53117 72107 87801 90335 6942 44558 98851 75219 82713 88242 20017 24751 23222 73630 60859 18647 83406 85874 39386 97203 88624 899 67360 29259 34302 11765 54789 40844 98519 67276 26579 98210 58487 55589 52609 84353 20869 53966 36967 51030 3744 28962 8450 66100 46012 55726 2361 1399 80936 94438 49213 98800 96793 87428 19189 35196 90278 16389 96016 10438 21574 82780 14669 67189 55339 30717 55394 19885 29067 31056 78674 90006 60043 98741 3968 88320 74849 63196 34727 19950 85157 82672 65943 45224 19236 30069 80067 77966 36561 80400 80147 32640 80500 36255 74988 85864 95070 8699 79035 81320 69855 22362 14430 82272 78733 2418 14073 22133 89861 30028 19579 68231 4472 54190 45711 24550 7524 42218 81689 96808 70810 63380 38479 90672 22959 22743 86980 56869 61311 64483 64752 88298 47751 71210 24244 41214 50568 90500 4090 80190 23002 50637 14032 4707 31505 28132 39985 76196 37663 13474 52764 37456 77806 66340 52912 59528 18768 85010 88273 67546 38981 6225 42512 28846 19631 71965 31485 95305 82260 6517 47452 51768 42211 51749 33628 76357 21627 95765 415 48595 42036 77871 46241 90971 9489 97217 13641 18373 39043 56013 56304 67586 86248 99290 82631 84592 57952 30651 76799 63903 49092 10327 86251 65210 89686 38452 84810 26075 74213 46807 2976 37838 47421 72222 54115 35671 18495 95954 3718 71514 17749 31173 62541 66523 84212 92393 79834 94198 29515 89485 57005 15458 36570 24416 60286 72585 10992 69777 1092 372 13687 28458 39982 32472 33001 64187 81983 54778 7305 87109 25977 53731 86576 13805 18116 26107 49467 40408 4313 2353 17560 9461 62699 29364 59178 12865 901 94004 16530 62089 34522 2908 44455 75657 75082 7035 21514 21389 49535 52538 70725 32480 99200 39089 12753 72859 65001 79447 7792 14190 12755 29720 58501 17116 23480 5685 133 80931 77913 64573 29558 19299 57501 79578 33087 4790 35743 67375 40359 84511 41570 24060 60130 61725 8637 81188 53403 64130 93103 52953 64181 82877 56976 39620 12162 65362 84679 97113 41046 65707 59873 42439 66819 70042 61491 65742 98528 23237 30432 31365 73343 11809 39275 16597 47879 51014 9715 67029 13739 75392 44273 11676 55566 80182 84309 72708 21220 45372 51249 54095 87687 92007 37531 91732 486 93851 10196 18644 21658 32212 98034 47383 8779 78745 12267 45858 6069 92600 42613 50266 79929 35794 22626 15883 34895 64010 97102 86625 12872 10214 63937 11710 67805 72609 61098 36593 87381 68626 96108 63387 69946 91324 4667 47563 9843 55688 87988 51715 24076 92499 38130 64319 58489 94632 63994 50969 31684 61069 96042 46066 75832 31057 59069 33888 21964 82541 92205 11314 93734 6403 20359 42948 30798 56956 54340 73202 57926 9704 11971 25248 36785 30198 16371 78337 29476 40330 8796 26274 86459 28950 64765 1448 12588 8570 17075 61163 43487 98607 60757 99211 86220 74138 67599 22309 43205 8309 49837 80101 43110 4521 81554 540 88528 90606 36691 26223 9654 60796 7807 92126 47630 81659 73963 58241 47877 4087 45886 59847 78016 99122 68462 35792 4782 98169 6775 54315 70586 49067 5314 5696 87309 82445 89110 28227 44372 92109 46970 43746 74298 67094 58967 98998 42783 31758 21112 55258 64782 36262 50660 32504 17007 55458 82720 15585 30693 85959 86526 74381 81742 16744 81892 65043 54305 28645 48636 94596 72290 88646 65282 60026 14371 27087 86297 39048 25795 43574 83409 4211 59160 62594 60680 24760 32837 55044 34023 12401 27551 98465 94429 13762 65465 17388 46002 83350 23840 71157 75357 55440 44789 76875 46598 1451 23936 91043 31575 6811 63858 92938 65187 63860 97784 46409 1288 92720 91751 93167 61626 59809 96904 32764 33696 74045 46913 26266 92588 37584 82391 30610 88504 62278 74999 83793 93364 79344 61553 49515 70978 20547 34983 43070 18472 74220 31765 53502 94190 51007 2888 36840 83046 70290 14175 13237 84807 25868 53312 7782 19127 2221 88627 60235 83443 8575 49470 31843 38890 67577 40598 38133 72049 33937 98300 99071 86157 67680 2199 98881 75317 59470 16877 63603 37256 63947 59967 86866 32407 18596 5967 16933 20131 11494 9440 73426 54152 25356 76806 93745 23283 50974 36059 5779 21556 77836 90650 79643 27742 75402 50229 37215 801 76558 25290 28554 3107 52804 34283 63356 4228 56702 75025 57870 81848 82671 93300 30014 56416 41151 83069 13118 4839 44562 49652 75364 22200 99615 88285 49917 69868 69077 19166 35047 56564 7300 26686 63557 20906 34554 20687 3440 57664 42970 95287 94666 24050 80951 81462 62602 12287 83987 64234 36248 30364 47694 54451 8524 94431 54088 40489 75509 2715 41515 15691 60353 6528 90567 90597 289 85441 42668 63597 92263 24815 83037 62639 10579 97229 75533 43448 72604 76998 2746 80465 80883 31026 82079 81491 71103 77669 1995 9191 5387 25675 48632 34464 22960 34261 46825 94299 87676 6011 68228 42102 20647 74474 35303 74515 37627 67457 37048 69225 14117 84712 80922 2388 85275 78835 84528 84120 36603 57637 91809 96643 6934 43737 90317 68687 62384 84141 99918 12699 30734 13817 65633 9473 90910 29396 91568 73087 71971 42286 46890 63776 24463 38703 10893 29840 64895 60629 77568 74488 9467 38108 71334 61864 70642 64739 87297 3046 51100 34523 94080 58023 95714 31476 17442 56778 42487 74529 68607 13549 47299 22883 46919 88701 57760 67249 67301 20134 59096 47826 65955 9311 39743 77885 73416 2408 20240 56616 80796 57399 61366 95157 31579 47318 40735 78792 22346 91331 33833 87620 93873 39978 48100 20212 94542 42686 8682 40746 98492 29300 92166 18045 92356 59360 91112 44827 79879 74724 85284 70214 35418 35357 89393 98677 55426 88611 43673 92299 4380 86418 98028 71432 63623 9007 13503 74666 19271 34068 78110 54772 49463 71558 38819 81130 56922 50883 22470 93770 71831 13533 15617 63758 84509 24855 41588 30898 28828 31796 87070 70991 92080 63278 74252 31300 31214 46695 17217 33959 15748 88929 75127 15477 65598 14220 21469 45243 8519 79441 15601 79102 24006 60413 21111 53424 96936 92947 3152 32527 81628 52728 88651 25182 13877 97222 89976 81560 88257 86123 66465 59591 75238 98279 48906 49442 92796 2368 37062 36549 85533 22926 6993 20786 88485 96531 46260 49757 31510 10994 71769 67070 62372 2256 88214 20608 23324 26076 2932 3080 19770 19214 44398 11052 57508 16004 58244 59622 77376 90014 59117 90959 59284 10411 76733 98033 21313 85165 1255 29043 96313 48789 69475 62608 33082 58597 59163 78050 56872 5792 17688 81612 99570 75164 78214 7283 36585 10869 80602 21532 71017 47478 56577 76312 61943 37782 2140 96068 51820 28320 42966 84793 42940 73948 12781 46626 23447 10598 60433 43936 97459 20441 61545 41453 54490 76568 1627 93808 14149 3268 1227 28656 74058 59965 55419 37900 94873 46923 30361 63245 33677 76092 23227 7095 97546 32494 20811 12870 13947 94912 53644 66582 53013 69523 34022 41864 7033 77858 20559 87326 40195 88040 29339 8873 23402 67223 36870 86102 27007 14219 25317 90601 58874 16076 22255 7544 37840 73277 5821 99609 42919 42341 70870 84995 38183 6580 64693 49369 19432 8627 53071 27404 74147 93355 27078 91223 6781 49544 61506 9976 12977 3779 47133 89121 8711 67492 40827 82278 49044 85019 28003 32887 38081 21048 27384 65209 4702 58812 80276 25054 84385 31039 26300 91940 81650 28075 49818 20007 28769 13436 79465 48309 96492 36871 41207 40796 57925 98817 32441 80954 27091 57497 36418 20033 29897 66449 55178 37036 74377 36147 40695 55960 50345 97399 86261 45626 44701 41715 36678 52174 87840 3018 40050 9252 8866 3602 19066 67426 99563 83675 97579 13413 69008 67797 23847 51806 76602 40874 20290 80568 69450 92464 2532 75130 70169 13562 21060 44936 35476 67462 2776 90938 44002 5232 49222 38948 38304 80434 99752 487 5205 38022 12907 7959 30126 40491 20266 71153 46920 80229 65786 80579 59378 38158 74449 75624 46591 19592 33360 69698 34646 39802 18371 98132 39994 7922 73799 85866 3124 45617 93549 63824 96842 79059 63813 33146 17174 2705 97524 54030 60387 99986 53600 91905 17389 39272 92122 3622 93578 15494 8474 31789 89803 61548 34805 85428 10355 17297 51136 27632 71290 48644 18695 73654 17776 43133 73130 78777 81671 23721 85749 41743 21712 79847 58389 70072 79423 18434 58741 80186 34704 78105 47408 7725 14546 65823 75489 4255 51874 66732 44371 97734 52117 70141 20988 38122 3441 34751 91238 73634 36168 22503 66725 26301 20923 64088 57091 85146 92505 23679 4220 46497 96400 8294 32491 94116 43334 24923 75683 13034 25857 32158 71394 51423 46760 16720 84382 96931 75642 12790 80333 64018 44338 72993 24161 67386 76295 67752 98514 87599 94572 50526 78987 80322 47803 20649 63809 59105 98129 34960 29884 66137 71943 20629 41496 10156 12703 3820 98356 50039 77708 86204 55998 40161 70073 98518 6230 47933 38502 8155 92354 93906 19217 16476 89040 36581 31678 50232 79200 94901 94768 70503 14331 53953 81172 73829 46801 31902 55930 8141 11458 41906 53591 85821 78581 7221 15103 7463 28674 53585 30293 91914 57021 1218 2419 16060 26477 33149 87657 22893 46538 2470 78962 71202 97404 94633 13685 57687 68775 11213 96738 79157 77211 64084 48098 59015 41801 60748 49586 23433 50736 47554 61067 57037 68801 50903 38705 48267 7082 43101 43272 45874 73623 46022 21626 76603 51316 14559 52486 68479 84755 91390 57563 55109 41012 16336 10976 39794 60493 37207 33914 27389 64908 9112 21491 41837 21516 88518 85823 21974 16784 97910 24729 22275 76655 18900 94826 68191 22310 34212 29672 55867 7741 52390 77378 25008 88575 82676 97213 95488 65367 51482 18219 85729 27916 29489 27025 22316 9029 66392 21068 27149 3224 64300 22471 23816 28086 36860 19920 27167 96433 85916 26771 7046 93516 27814 68907 56612 26880 91970 5143 35080 46232 95683 90826 49758 48761 51873 48260 55042 91521 94810 33326 6022 97728 51142 30050 73826 5192 89561 43080 36979 1637 29164 87570 86975 8835 87937 86209 40077 7756 71472 11017 91506 40706 26154 33438 64906 32164 35598 37100 30169 58100 96631 50085 15358 98007 88191 83605 11433 62245 19966 25900 13192 64439 35364 79220 86333 18562 27862 62355 15265 52794 7499 50361 55637 88008 62601 82690 4684 45 69449 16209 60008 19439 48936 85065 94577 42435 31519 6872 33 41985 49843 28796 28133 40470 31921 43356 96424 84418 13998 58844 9058 94628 47690 84576 17963 56006 3771 96840 37323 71736 43675 94701 71358 6118 51043 21028 2537 68633 85954 15539 40627 6596 78484 83331 59643 60 69497 98264 28155 77509 30742 21911 42752 62530 79951 84459 21547 4324 59649 57041 47341 92047 30894 34282 78973 59196 44618 21743 90877 72614 43420 54062 94720 73961 97722 34928 94724 46494 94921 80766 82237 74384 72033 47908 66619 80072 29913 93143 35880 13776 90766 82476 23812 28323 67998 54504 22107 33155 52822 29808 33769 91326 84844 50391 73388 19131 6554 44661 92206 66685 69531 17988 77501 1130 63187 77497 75978 67121 36750 92179 72736 1128 69955 43630 5354 73466 96505 64924 51441 28984 23803 59377 9050 7948 16239 33941 50283 64416 15144 371 2922 93430 2102 56567 14882 31183 17936 95065 13170 35311 34927 99904 81812 85229 98750 55199 65491 23353 46268 74280 71845 56980 43216 45161 67339 24577 25236 57978 47880 80492 85443 38519 71143 43498 84798 30063 97897 90015 58997 23443 53608 3055 65959 22651 94519 1024 32931 39262 75120 39464 5963 22594 92556 28430 97868 97406 23829 72642 14984 93917 67343 29110 30039 94824 21883 25957 46214 3109 52968 17348 89994 55614 2384 46960 55938 45939 94379 96593 56471 74588 13966 29933 50162 70040 14464 33095 66363 178 70853 26063 69294 97520 542 59326 44683 99589 88018 55470 44563 76789 6613 22822 18550 19882 59907 32896 48293 2986 67806 40352 43118 31278 1386 65190 53633 69850 59413 10111 33979 36665 33473 35249 89034 14745 71689 91511 55762 15198 19690 23080 96053 1792 65584 72093 85166 252 68887 93354 85409 3688 68427 58195 47613 2914 53583 88507 98773 37977 2947 63596 50582 23620 28148 33226 92072 23832 104 30138 74901 79341 94103 24349 84521 54937 59184 65659 94973 71710 8503 12266 16128 10308 35807 73735 35391 35746 74036 20055 52985 49601 21692 6617 2059 78590 24947 73660 23544 92880 21286 38503 88458 63540 74343 48529 73213 42597 88731 32070 90821 259 14003 3770 98359 37460 41954 23910 46958 60395 57494 24021 12422 94097 65172 44437 46391 98018 74892 59899 49618 34130 43225 97019 10149 51854 6300 27246 207 4945 49605 40913 58182 53135 85262 7424 11995 94459 60705 24205 32060 85780 94523 96969 2727 84380 16033 88782 30295 42675 63017 30759 46486 95095 77735 60949 45692 31804 82623 89532 89628 85753 51567 27168 52188 19337 13598 31334 25922 94204 88109 23499 10125 76461 31465 521 17806 46812 71992 42026 38225 31926 5468 91896 59515 23668 62262 7960 33195 55041 79767 47136 50396 36194 56742 68157 80167 70250 80818 97247 13280 68220 56796 92977 17456 71240 24422 8996 277 34915 57265 67629 50644 4160 37822 81446 56056 36338 44064 25677 73711 6687 18853 11339 7522 84237 34834 7762 57678 39019 52154 28043 50431 79894 90516 46432 14105 81704 44154 53525 58427 12751 8386 61823 75521 16663 75736 99227 90011 33642 6574 25563 57327 54686 43021 37353 72403 73562 99675 31489 8358 59807 68200 79681 74941 74517 77777 95529 11144 4713 22106 71742 97556 46887 93966 64795 92983 4109 14407 62788 66632 15968 58556 41767 87592 54037 26699 80494 71073 74039 46189 86873 27225 43329 85215 4421 65903 15371 52675 92105 85543 64444 79707 4007 32819 85407 88968 13115 67677 66429 85136 82179 6395 88405 5691 78665 69900 60806 8184 46305 66489 77303 58684 45880 27027 75005 83284 60348 74567 82449 9071 36517 30814 99941 34988 4297 64661 91323 39044 97517 22563 83392 7362 23617 22370 10591 96781 43796 13193 35536 32039 5167 23162 54691 29510 79055 31781 68762 46650 2463 34372 9042 37344 58330 50829 37836 56537 63183 86607 59020 17368 51838 23494 35692 20113 29627 92667 98791 54736 20101 73392 67011 4431 29902 54146 15150 71713 53174 71076 72598 61696 56472 12627 82846 15348 70972 28823 89880 31697 17514 16913 36125 17310 86818 87097 89721 36788 5450 98170 80871 73502 42412 92797 54886 45860 72714 26939 75563 73037 31160 81620 853 54419 37214 52101 34694 32341 99629 9385 28402 44383 54369 95542 99899 54158 67454 29161 82814 73185 89407 26963 4746 24878 56533 95055 87422 73911 92969 7641 60753 72924 38594 85375 60272 35209 55873 24246 96142 36095 59838 79116 72790 32127 71549 14666 76329 75873 56064 87145 14603 80620 16388 46451 19221 70348 78247 17093 425 1184 94872 97480 77627 91179 98474 54595 90735 39587 35587 64949 96008 51706 26191 95549 81061 53471 55691 15236 17241 26543 58230 59103 97729 71881 46889 74948 16861 54875 51945 33333 75202 89796 68001 41073 66385 95225 62901 86351 41068 69651 41220 86480 46998 72769 47004 78877 36247 45181 87744 4164 64246 21831 72698 5359 52429 44181 84481 53372 40770 32057 76325 86624 72356 85068 65920 63066 51995 21115 11335 94084 67819 17369 5068 66691 28735 68103 95381 5472 3845 35526 42414 2442 68355 7193 59636 79693 12880 62784 92799 65090 91698 14414 48616 51348 41649 40900 87580 38153 41527 92609 22962 41459 45531 96035 88357 51461 61926 86005 62389 37758 54620 23990 69582 60706 66007 54974 2582 55473 64200 25190 44000 33943 28903 42632 5416 30314 86594 54231 59254 34297 49537 58796 67890 97131 19549 34278 27762 57432 10779 60099 5873 11038 38092 86153 94049 61971 40658 66800 55318 65492 52978 68023 28911 7025 16272 77324 86886 80763 68844 57833 89863 70519 13703 56855 28011 98234 66546 54854 83277 76991 96413 41147 38088 49211 71010 96201 9091 60460 43084 86181 23786 67333 37783 25619 71781 13946 46914 5294 47172 52233 92586 84715 68498 51798 75751 10720 19880 57478 29834 25079 51370 37448 26359 10384 29091 5148 34139 84202 42046 33794 87398 15912 40904 24939 72756 34681 37925 47043 97060 23648 12929 50904 10867 55359 35710 57066 11383 27082 64627 94933 92395 51531 86089 71523 9633 31617 73380 34500 98442 48808 534 60701 30474 32354 85280 14721 48809 58503 69701 4239 38453 45544 92247 17306 94114 55089 66600 80732 45341 37454 49709 47183 56926 83566 37500 50701 62843 97477 50885 62534 73021 19934 41804 47800 73035 36733 93075 76451 77369 14118 54118 51485 40725 40404 34771 49824 40390 22252 58426 51770 88763 94555 64218 19109 80 81140 46284 91617 56083 5632 18697 33767 27104 23334 69845 9200 52595 71035 62837 35918 70848 82514 79186 41173 47833 87876 8918 82027 63140 96816 41509 33798 68069 63264 40953 69976 46092 58899 90076 33078 70160 98977 85126 39132 19521 12128 83158 75570 22772 74370 62808 62908 20363 33755 66336 19799 96671 50241 64136 15695 84565 41135 51693 52172 62660 10381 20774 21707 80432 77830 48347 21861 83026 8986 94070 62140 87546 1427 81301 88806 71391 17504 98373 45247 90427 79903 58049 45023 51751 82901 57256 59803 3364 83102 32236 29969 12604 86361 59164 29216 25801 18345 71293 64581 29072 85765 89012 74672 16301 84292 94986 64729 28202 37519 70674 81309 54282 90130 33790 51860 76649 8661 72893 29619 22860 70874 11858 30517 28775 67740 1482 74270 26242 89499 22980 8540 52001 43262 36142 32042 96595 9020 86547 15407 2653 48002 12728 50791 10792 5524 56448 90311 1989 92294 93285 6846 72243 39238 40056 86654 18938 42453 46816 530 20335 91796 38742 79966 87924 20543 29080 31023 41429 14055 86201 69285 24630 88746 45042 13392 49003 57178 23383 70895 64835 85940 11136 95607 15277 21623 55937 15248 88386 55898 10479 63699 77714 51173 80345 63394 78800 48684 13012 37644 4901 12922 27825 1304 79732 85621 64656 90643 94962 74317 97822 51070 95543 78228 3159 46088 20395 58577 37779 95129 70190 39693 66037 31103 46686 43136 86775 60445 42510 23810 66248 74071 56730 62400 62887 16522 47789 59674 82633 70578 53307 74656 83935 80806 24366 83696 88689 98056 87998 64220 16991 87795 31681 41441 83127 26800 5801 12058 58746 28600 92439 12398 5898 53331 14809 8191 63868 58157 60245 41129 66481 12921 41043 16733 68257 15405 90404 29907 41137 87007 83598 89426 24977 71565 16569 66581 64790 81981 24584 9561 2082 23527 63488 12924 43165 69010 45705 29037 55303 23065 31246 10815 60323 67124 45198 10031 61447 27935 28092 93256 42252 76524 81317 18159 7261 92123 74629 33135 16156 92888 23986 34745 78421 10625 30629 66102 35293 92718 62814 65283 14939 89067 57883 16679 67669 74728 26197 22509 99662 1609 60341 76167 59133 12057 19010 64721 62300 42785 16570 10988 70242 59915 21888 12786 56831 90254 96158 49099 80335 28829 38500 53122 98175 48355 99081 5193 75777 75283 58920 32823 14990 81825 58080 40807 88330 17546 90166 93782 38548 26622 65466 60661 34677 36359 51890 14093 52644 71906 15562 41700 10045 72374 53225 72559 45664 59981 7887 25920 2015 82746 91934 71184 91184 75653 13484 92587 43126 64044 40249 68082 25316 86623 85120 33388 13662 33441 60642 1671 3340 99756 84153 45108 81793 97353 43663 59487 58720 36344 60866 37202 29767 3093 47419 54890 23844 25666 59323 72025 7453 11392 36752 85717 9122 64886 77577 52394 64598 50356 88975 35237 36805 93700 78449 78842 56493 50406 81837 5680 35076 87158 52459 37771 94405 12949 83366 16346 5813 68280 11149 5684 24171 50541 85300 44363 34710 54429 27711 38185 42479 48516 37853 7857 53020 12959 96927 94031 60798 12808 17987 65448 3122 80846 46523 16277 52392 67600 67744 13629 67232 76746 43800 67078 34455 68547 5030 78186 21771 32873 60882 90159 70139 22243 40340 77766 25067 61508 47574 49726 3559 66202 96638 25164 83963 29350 519 75192 71069 39940 68021 86154 74453 24708 93903 17135 31688 61284 79958 43273 16124 64807 50369 78493 66813 92326 77574 15759 55502 11663 62230 99543 5362 67818 39472 53985 35314 26377 8709 68133 50161 15381 15690 89778 36400 33675 78401 38435 13473 89509 72489 2628 31554 98152 31158 15509 37417 41973 94880 85668 99273 3612 9491 21553 44543 91558 24651 63895 21740 2849 69216 61705 84433 3213 39233 87052 47396 36456 61809 98140 87904 57290 28025 84210 58492 91484 54640 32867 35736 11634 97923 51035 33493 77421 1886 2902 32314 63408 30538 67656 69468 50746 26833 54385 77143 79231 98379 10408 6649 68141 367 56860 28684 81619 77784 90965 22337 20719 40646 17795 86791 6722 67240 95204 90681 30830 70105 5361 16396 56641 3467 64560 4184 1342 17316 88083 25944 40849 66545 77129 98975 3801 51219 59425 12236 53875 10086 50830 1797 47616 58757 23177 48778 79876 99984 56932 77921 86664 77726 45419 1699 60372 37793 52249 15930 26556 83021 33814 87319 42166 22494 25981 66457 4714 14484 10333 71186 50401 13630 19360 52091 46713 91165 7613 87813 70758 15052 66999 44004 46810 41061 98781 38925 88132 38271 68342 7307 29857 83926 57635 32048 71188 46437 40107 89387 7958 54944 29104 90972 15945 74600 4024 16504 68990 25310 35088 97899 25411 59347 23534 49389 42094 64224 79794 14936 81721 54785 96459 94570 79538 43281 82094 41988 23647 40367 28345 2982 6041 5337 32167 89583 93763 95242 34219 27708 175 18917 48698 69070 96486 70324 91067 26831 47253 30241 73005 22729 28116 29136 47887 60838 70006 75821 60965 24693 98684 95891 52986 79766 62464 62032 54023 91985 78663 71684 60576 40276 32272 23680 7595 8311 39439 87364 78513 77852 59712 90708 6008 86128 9090 63736 3928 29334 99988 45447 86545 99239 37991 61398 9925 28241 55989 82474 80650 94836 42598 5216 61776 87832 35305 68739 34541 10508 25854 41508 25413 28330 80585 79917 63954 77901 9315 81559 4180 90279 34767 26780 33631 10286 81378 54732 75747 58737 27275 28076 40213 31508 97325 7529 78631 7459 7240 1104 23880 6250 75863 51008 7773 10791 59135 49722 14854 45565 10643 71385 53870 10678 98799 97398 1842 22363 64190 32416 2572 85243 56397 43466 67171 73439 67915 59216 30196 40445 76587 33727 35499 89836 5794 65300 10420 75028 12019 61641 40644 55200 45846 4484 72259 56717 15642 90905 93389 95484 39268 79309 64793 29864 36422 35892 82530 14180 29531 29372 5707 26739 72965 48854 76455 19043 4168 18232 98361 38262 83666 52503 75912 88683 80032 80550 68837 57831 29467 9240 61187 9220 20186 35019 70556 93474 16900 28074 87193 78980 64295 85656 57985 81206 46061 56540 93702 35649 24037 64240 25764 47329 85714 81871 42844 87294 74583 21072 84973 83856 65501 37193 74832 42020 32362 9374 10987 78245 53665 65572 43575 84293 74153 84057 80557 17301 69508 24196 28756 46773 59325 69552 37603 57161 26986 12560 92926 32277 39483 1143 20996 89646 53221 78597 57239 72508 97989 19039 74867 68234 10200 33219 33141 87973 53137 38164 61183 97978 27651 33682 23906 92141 21065 68850 77238 68871 83461 30249 67536 96863 28374 67973 90627 18186 75215 69168 58675 99976 99370 87730 38869 74240 4845 59992 91070 5921 36884 7579 76023 97972 25748 91742 67018 64941 8486 26348 86784 9734 15536 24393 11429 89783 7572 51236 17280 56395 75841 78077 79892 36453 3003 41541 75168 2650 50427 35241 7686 8862 69672 678 4482 47894 19055 75300 67077 4698 65494 99803 94561 51464 6332 83875 38713 21272 7353 41788 77511 61294 15370 65849 64574 20619 82205 31191 21872 79482 89733 53596 64213 40019 69192 88120 47572 23119 53884 81753 89662 12078 37651 34947 51883 72866 12843 82372 60991 13098 61424 52377 33011 58272 1656 26807 77924 75380 92476 22393 48280 6893 89680 23848 3026 39143 27647 2049 39404 97911 14034 15870 849 47786 23218 80024 27331 33540 68075 8867 48275 8543 95900 23276 96756 10072 78064 96702 66425 21438 8414 75618 96859 77654 39247 32891 54631 14644 45637 88472 8988 62317 19287 79776 62693 3011 4238 8905 78916 31311 31027 50135 1672 21266 13924 89706 65968 97084 30229 69844 25192 73193 2962 88069 32790 51558 83776 25848 705 92540 45955 55542 50730 98650 33164 78692 19332 42549 43476 62932 84095 34213 11325 52548 17934 80274 80933 36962 60923 7937 64600 46324 16849 29217 13448 33691 55803 50925 93057 70753 23419 25521 464 85666 69142 56012 80734 18576 79277 5667 2822 25464 37939 39799 19038 4136 46390 13215 84358 40481 30655 36315 54819 12274 20286 7141 7007 53070 84791 26724 55449 65647 96770 71852 14937 32991 53370 41224 68096 62331 40437 74788 91763 81245 63825 887 20258 12365 37466 60079 18858 21847 98871 93352 42370 66145 87168 37716 509 85975 2324 5545 34343 68129 88029 55267 26655 86381 88312 44698 60305 81232 79165 83621 38308 23925 72121 58115 20793 45773 64288 30948 25936 45144 60451 39997 58040 79816 9695 26514 63609 82617 95761 74261 48723 49456 82992 72844 47499 70124 28909 36174 84447 32910 33273 19091 10389 93292 96077 43669 69604 5155 67256 59293 81026 89405 20943 78763 14722 13375 63602 58718 91222 95680 92940 82470 73346 96555 22069 41833 1805 7178 85469 93470 97602 6524 98687 29426 69355 51381 66835 26792 63161 74483 36863 74727 3151 22571 41058 26364 51561 61726 94637 85266 67574 18253 95925 54551 22745 53996 25699 15989 6999 58567 70901 46828 67813 61840 53732 17 36690 56661 63204 97331 87146 67366 31821 84287 24343 54811 48977 10088 31600 13004 84621 74827 58270 80483 61244 29542 23052 29937 83574 39849 45326 73681 69353 35419 89349 20745 32916 40977 74983 95853 19111 98906 27220 63528 8596 77438 69905 43027 22334 36057 36145 42454 49857 2541 80203 3677 50757 11297 30550 1147 71571 48531 7093 69617 74505 74858 42805 817 60059 37365 68677 23862 46352 59281 20621 95399 10251 88849 5724 26158 64613 46069 60379 95426 57781 28028 97068 73151 23984 87739 94260 43984 25091 55543 42493 63644 85918 77540 92273 48121 18919 2212 87804 52130 84394 43743 53072 17794 72123 61015 55052 51758 3123 76439 43284 70326 60176 99299 74000 751 93825 88017 83997 23362 27119 37081 17786 65945 51816 83113 36646 80282 38858 65358 8338 57076 68570 20110 82810 60869 95489 20953 66195 88471 64243 12397 39567 5668 502 72999 33023 73833 76612 44409 72238 20324 65231 37384 75306 61330 92130 42232 69849 95250 64969 44953 39565 15937 27348 14282 93088 42250 78563 95841 51659 33924 80332 11907 45207 57565 42890 72406 71299 81499 70835 88996 30367 68501 79166 4107 76708 68419 11646 10067 34414 12186 24899 85796 87722 32485 25488 57360 69207 71975 58566 1320 60061 50667 53724 89097 80319 82599 82844 73863 23034 991 95364 63454 43821 42050 36326 49156 23422 84525 57434 26440 77207 63177 33768 7482 54278 36058 8813 83525 82226 64915 62733 15034 34874 81831 24602 77602 51403 26863 5788 54349 36831 10642 46108 41382 14261 36104 24848 90931 2969 61049 29117 3464 99554 34028 12355 35015 51376 11141 87714 15050 49410 97823 20797 97121 88394 4049 40767 1807 60950 51200 61177 2274 58336 88645 67054 51266 85328 60017 46237 52781 6855 95218 36742 27382 12958 82740 40833 51766 78468 55973 19779 57386 42812 48788 88081 70069 72148 74139 98864 7669 19049 94897 22406 33906 8069 56156 30791 86045 68975 39559 45870 95239 1452 74041 73866 32182 44326 2367 90044 45747 16118 84812 64673 84047 42106 11333 95558 92917 71173 58891 81730 13583 34042 3554 63277 9388 7051 44840 93697 97755 94415 32256 22158 2867 34164 70695 2219 20074 35709 65874 48876 67641 74840 29053 47991 92462 90981 15066 66614 36669 5235 7185 56055 14485 98856 1669 90441 29939 81738 7831 24128 52795 11952 12049 75046 75513 24132 87332 83501 97810 20545 31624 45823 40762 31357 94361 48054 42147 86965 97631 1678 86387 74422 69972 60010 26014 2535 2793 69352 73869 64244 68719 65578 49885 52657 26581 11080 26333 82261 67582 37679 43595 77111 76474 6650 11211 65344 19577 46850 37406 14056 32599 90049 66203 9707 71323 1522 45099 80921 49010 68254 48070 40645 23302 31847 18155 83412 56972 26334 80866 51833 42964 22890 9075 10477 41608 56909 65381 29195 63134 87838 34869 52161 90146 37367 58601 44156 86596 59774 45521 37896 17094 63962 20657 44709 43908 68906 99704 99773 48068 78774 45606 424 42213 2623 69832 6783 89983 53024 36129 73497 43810 3540 97433 21228 15143 94331 12692 39976 60392 15287 73837 80528 33154 66136 44781 15139 3312 69768 25864 54206 19619 12249 84542 30325 52517 36162 43626 66834 47122 35949 29748 63149 26466 99587 70828 82281 33734 54273 8060 24459 97496 25872 32090 13911 78924 8209 27641 15740 65819 13536 43327 24419 18698 59064 31744 89596 35813 70175 98345 57628 32569 39568 84389 64196 93435 34220 62813 66371 9656 43779 37093 25514 35479 22300 19635 16237 17984 60103 7777 1303 1685 52718 91929 89917 52919 63953 29258 37096 15650 30573 4137 73105 7606 97304 46851 59846 88913 14978 74756 96200 57709 59138 28256 46697 98117 51081 81651 94139 97545 56790 71733 13497 43077 64359 46269 32299 39663 67937 48664 84032 22173 97891 11755 44342 18013 69047 17801 56491 3723 50787 26135 61876 35160 64659 48921 48741 5372 93988 58767 97454 46242 15663 41756 57031 10427 61285 4985 11546 32169 74746 22900 98649 88350 75019 49910 51970 37078 99522 63020 70104 19793 68197 58175 6997 98453 25869 74942 80708 99287 99044 31940 65070 32943 81752 20379 47433 40393 95277 57075 17419 75953 41597 47166 20187 36127 21477 5147 42253 2603 57668 27987 48438 66025 70581 36622 22137 46359 63778 34257 90857 14201 2306 24969 58192 83595 80968 46221 16921 2317 32080 91196 65137 80164 31991 43195 45931 91528 98082 88932 47854 55375 94699 81511 77165 33066 89284 98479 74372 13321 77136 61325 10956 67136 16595 3544 82862 74332 56842 79722 77009 20694 54022 41097 41652 12708 71077 63145 6940 4603 83448 48107 35826 61304 88046 96741 69993 12 65625 84377 95778 46561 35958 98700 42299 45219 93567 70958 47849 70401 39201 21197 12773 90573 29988 2311 9136 63352 87367 95908 38143 70679 63580 86321 73565 30728 81703 46203 52021 93408 86833 34949 80533 18067 41385 43618 77470 23959 33925 81943 74014 46711 2713 62544 43716 30297 68788 83859 88159 23942 62914 15984 35388 18888 34919 24833 45625 85712 20031 66629 1977 93239 36211 67653 49833 88522 28503 96584 49545 10770 43325 75218 46461 80868 78402 75125 46893 81079 81802 2355 7875 86959 95748 97381 78644 138 42957 64912 47204 14085 24149 65127 16149 1447 35950 10032 48129 1133 22938 82612 224 51997 71692 54950 17714 27451 38353 67192 42971 70108 89694 75018 22037 48748 22867 21235 39141 41360 40734 70693 57626 70493 69335 24826 26487 56390 76532 92741 41190 26593 93037 93816 57062 38287 7355 85663 83049 69114 91220 77181 1056 94671 41535 79110 28782 65780 38515 61535 5446 24200 52513 50487 85807 85775 88479 45101 77874 12444 5146 31537 30660 98037 63964 82048 8999 45024 51899 98567 7351 66598 39943 10171 97014 80945 90895 13119 77575 1788 76794 53860 77653 18600 58299 788 99434 97151 33148 79424 63132 14582 76940 10243 29305 8412 29874 42463 48337 40109 96634 81104 29254 13113 35906 41263 52545 80306 95769 95087 18343 46148 88738 48284 19519 47099 87239 80051 32444 21466 49271 14353 76260 71645 96762 52704 59188 76075 16477 31595 12512 82242 93928 37121 42140 79346 48622 752 80788 74516 86344 15445 68239 60096 17758 59881 49955 69115 73090 81132 62633 50865 42989 92306 19657 59927 58058 29568 9119 20472 72176 24019 47049 22209 43028 30643 60205 42346 96419 4475 2379 1894 6980 9897 90306 47739 38601 57981 97415 6435 5135 70484 57848 25950 83602 61180 31166 10148 69941 28248 38203 96187 47058 21879 31455 84556 61946 95413 27686 17292 61675 13779 96860 31865 47406 55735 31271 35367 62299 54477 26889 96167 32816 37964 3482 50656 48643 21290 43411 82408 97548 49230 68230 2592 92018 352 90587 89262 42905 68226 40679 11401 42672 53666 59043 18771 99259 13076 35777 25170 62562 42647 56882 20116 36544 30973 24469 41184 13320 18154 20284 39863 97179 96991 28746 45266 12080 33196 64090 78158 11926 89799 94788 23920 58535 74083 4488 74408 67388 56950 95593 15871 34721 82309 53838 40502 81401 67385 64923 20582 66787 11167 98747 36485 17001 1461 7712 34033 27012 50753 61031 69057 37114 18808 21452 26672 89209 50779 30041 49028 46535 51203 64426 35890 71038 51091 495 20010 27749 42457 28188 66735 93792 95511 98257 51714 92014 58266 8811 45689 48767 48255 51850 82185 89159 49800 86673 62443 10981 3641 22989 80885 95876 97120 38053 22999 54770 33278 45568 54050 96097 49008 56541 89625 99551 39254 19135 89251 74053 72732 57393 54632 2610 55604 67048 75439 13866 80002 57170 88035 24100 98013 62692 40237 50941 63936 46954 85116 77803 2516 5624 57711 29167 72027 17032 75236 76294 34 78275 75376 42584 68848 6247 40167 64557 91953 50281 38335 85628 40058 16846 64936 67207 32370 7753 17490 41707 26628 45044 75388 54638 33870 12434 1138 6335 94742 45538 82100 46662 3689 89482 21222 13368 5768 66692 47796 43048 24887 8716 95182 32025 28680 39856 95158 99160 81931 86358 26635 64441 21411 59998 94621 75330 81885 82785 47718 16857 44742 96304 15270 67892 82976 10872 11449 56565 61093 26413 6284 49685 42298 96125 95745 74996 62607 73728 83970 71284 41390 35849 91462 8915 6785 3147 86725 49502 52645 70350 57998 21196 96239 25670 46820 96426 38993 41121 44136 28659 38875 38633 38914 65167 10054 4167 79696 13839 26897 11536 82908 4934 860 28398 43485 53157 91346 73194 64731 68520 21258 2400 35991 16408 85254 869 58393 2570 20161 31844 17779 35235 98795 61142 16499 37965 90876 1626 10849 68491 30592 46380 51430 30471 54344 79607 3909 95534 82726 33515 76968 64142 71559 45323 63397 44844 60217 31429 649 29472 38552 71730 3803 58374 18753 14637 3965 93980 92457 37582 2322 99839 15481 70784 39803 72449 74176 6178 29138 45525 2252 34713 12761 81766 5222 73744 96681 83089 17812 15802 75925 36460 74502 69343 94650 72473 82434 68773 80462 57912 13225 63330 92364 15411 84903 92918 12962 32544 75016 20184 87611 92093 1355 32066 93689 82174 94785 16162 22922 1776 51593 82284 78382 79905 34703 65193 13657 63271 31653 7528 10995 71904 12608 79596 93579 1506 18994 22205 83415 42702 1628 28611 34851 71981 54895 12964 9877 71043 10068 71242 96153 85385 19708 91421 98165 7181 8319 28733 84954 741 27043 27922 3273 54035 32854 55001 33604 7657 83612 935 80389 71185 8858 62423 1194 30213 82034 90835 61915 96843 88985 31077 54825 12284 75970 11752 87401 32513 7503 78908 20907 30831 18687 51666 41655 36615 46845 98328 96750 52170 35769 16109 10153 58433 9238 71479 26408 75919 37271 78789 85848 85149 75013 13009 41631 76336 22904 73152 87400 38620 96796 39882 68549 61578 92508 9527 87982 12889 52274 47100 13151 69858 47270 38398 34424 42799 43090 5546 86054 40656 65258 47645 11783 14204 72549 62738 51904 12394 99911 71610 27624 56968 28540 51177 60124 5595 76177 20546 60071 74882 25177 75666 62648 37119 73536 33525 69543 83482 95672 51211 84689 64402 28291 81528 73234 21076 71536 4323 77268 70689 59805 1343 57631 40245 97008 29208 8717 12514 8119 98743 52743 75275 95373 20597 95223 18070 81392 86541 80044 88325 48205 20585 74828 34427 52031 90408 14184 82002 35304 91936 54580 50506 97769 14980 27362 87338 62680 38847 83009 53270 43616 2166 81005 16260 5256 62836 24525 13488 47719 91881 49588 57261 50227 17385 16873 79723 19597 19404 58924 6107 89016 46262 6145 6117 61474 6830 33957 17289 7650 22544 66370 47473 38865 22097 51307 21005 39928 72766 76391 58607 40262 100 89839 58744 28822 88749 66686 36304 85048 84550 45184 89004 25564 39961 87090 74634 90418 96887 59613 83960 19745 56594 77359 13064 59491 20760 20682 64881 23216 90033 74595 92005 50859 17689 58935 37754 12062 86590 75420 88920 66907 94436 92470 53384 11666 9492 34932 20942 66152 99450 76286 92066 53391 4895 50046 36675 91872 32326 60545 5602 833 52703 31140 32728 72648 31974 16941 89659 43166 55384 27923 11622 66172 96763 47040 72435 16855 20435 47219 43874 91991 96549 60039 87920 41444 49033 41013 70491 90494 7183 64852 8974 27129 87002 69429 64879 54391 20291 29079 59050 4194 38602 72890 94249 62094 84247 60131 40689 63899 5433 38895 32507 5042 6291 63385 1463 55425 42061 62215 50390 23500 59168 22207 98422 96520 66151 32074 1115 31876 46619 51622 33206 94423 39719 77162 80157 39593 80706 64887 6456 33551 2735 75853 97414 63632 9095 88021 85877 8477 2665 45950 37332 13409 14310 10451 96768 28718 42285 57670 61225 85882 95588 91504 96010 47258 44017 31809 34184 42415 12356 59214 10839 68461 42511 12325 35100 18609 65340 59166 29118 84709 88218 26690 76692 91320 11720 71063 71245 93291 15222 60852 60643 41956 95344 7902 53645 52323 81995 16286 87784 47066 64056 1000 79256 37201 29369 6345 64692 65912 16093 18356 64514 60737 771 60172 21394 58576 80422 33186 1491 81271 62625 66710 96390 45142 24344 86714 26136 40148 87749 4056 58934 95144 98462 50096 83073 471 78322 27983 1439 20095 22788 48554 89418 90552 44712 4926 3334 83276 24981 92090 3486 9736 47556 72109 5922 70823 73390 31052 70948 31608 72742 64091 47945 44927 56812 7824 84386 61028 12360 33142 45698 84875 18453 92173 51104 10018 66435 29417 27943 28894 14697 18251 36070 91973 53733 15819 12364 33608 35836 14296 6859 61893 9674 78927 94545 30887 1581 75544 45650 29360 66149 56369 728 52341 82457 93577 18556 66737 58436 12877 5822 61844 31558 25149 86820 30394 91022 64663 24744 34419 19213 74051 58117 39893 44149 5224 20662 54448 16644 37921 25224 61863 51576 76832 22079 14998 28815 14995 81254 35113 2390 80640 24807 99386 65822 30526 68928 35335 52918 89424 24581 48851 10042 50422 19838 52227 7793 20930 83060 55699 96248 97465 21714 83638 89008 60572 2522 51717 58505 90515 4978 75444 6258 20278 79660 28999 82572 33454 10906 42042 19313 99526 60371 19711 52206 67497 1119 79418 32704 1676 312 31597 92845 72050 97118 24202 19506 83144 27578 53681 53482 94456 30594 78602 18399 36144 17887 83154 59315 19233 86801 5815 40518 82467 5190 35394 94844 77596 33393 74697 80909 17358 45596 81998 74469 69051 32895 63476 34286 77612 90173 25877 44834 18288 61021 74578 45863 59731 86999 83575 68964 35027 86864 67105 25339 25963 46470 12853 52909 21499 55765 69324 77112 86448 47315 12826 65918 1540 36006 97980 10939 96461 5303 75012 80965 85489 93728 35337 4125 51527 93359 50737 30062 21795 45957 87933 23502 15911 57156 73746 58457 85295 25539 60951 8770 20197 30321 93580 54024 3475 1405 88487 36780 59812 29606 63660 95356 84727 344 82301 54824 75287 23278 42884 98440 51606 55519 57963 90957 37576 10679 42388 47679 35385 50588 68635 44079 15492 45837 32227 17073 63701 84696 83863 38151 97024 1786 99625 75651 76144 66454 41764 94835 78271 10601 79694 88999 80357 97452 95112 88551 52620 30653 49290 32868 43161 24030 98578 6965 58877 69230 63977 29147 62184 4188 8165 63270 38126 59869 4993 56813 45141 19867 59792 44108 32859 56248 23577 61040 66022 72418 18071 9596 52834 55836 65858 59258 55974 99972 85956 43918 68905 51382 70929 72213 24965 35413 53367 26016 62676 59979 81341 12540 81873 13644 306 17429 20020 61993 82884 71563 96918 65089 85206 3942 75173 31662 21918 96002 66779 38476 41726 40648 17212 70757 89673 40018 24359 51994 79851 27934 98107 13386 45658 91924 88988 10074 91395 84750 16762 54685 74418 72007 13122 83535 11267 3342 44283 70342 22774 96292 88287 5247 28080 52821 35169 46912 3655 77543 57982 10253 98161 806 27334 72254 97079 29169 54928 73137 7838 21929 30253 17763 37055 13411 40309 43271 50520 17282 72833 50106 21361 95247 38823 62579 64210 40901 38406 67479 30076 83148 48326 59364 81013 77244 73619 80377 50414 62628 16743 70759 65436 41856 79758 76008 89105 26697 14174 61988 32440 48545 74596 32092 38521 95844 52451 53379 20601 96535 93931 17979 48549 10096 3573 65748 87591 41070 69653 23041 59206 53990 78269 2545 28836 83227 73364 73960 64342 23563 54779 99351 40162 51223 53716 87407 26332 22264 26040 31003 73886 25420 23579 4331 47321 54253 99111 91945 2669 38156 91549 71794 96542 45386 5120 45549 55501 55932 48270 29051 37440 37566 64983 16804 17366 25235 65796 25056 21460 33503 42475 69313 28629 11853 28306 85774 71579 34083 68439 56518 64381 27021 17067 11932 41702 40363 95743 16362 71092 23265 78878 56951 90568 4710 27152 91842 26852 68718 57198 27217 25423 17808 76585 37194 50987 83226 91205 39725 7010 96262 6431 7134 62360 36550 31042 19128 39855 45273 55282 9157 32335 90928 3742 28163 71048 59379 67548 45019 96140 37102 51206 24151 81570 21745 32063 80523 32878 18693 77252 10706 44408 46793 58647 24790 5255 92327 41286 9758 65387 38686 84305 55202 39631 78375 34494 9684 6867 24979 27121 91602 65812 77489 61625 8275 33280 69649 70599 51676 89342 42847 52585 22442 59507 80619 88936 44856 42353 80660 24262 73942 93513 78277 53428 19103 93105 25671 9156 70887 8807 99802 38504 37084 12516 61075 94058 41185 14218 39264 51490 91050 25844 51976 39481 24983 23805 27705 43185 63753 71886 66746 27599 2678 49306 61391 7339 34535 22714 7137 36813 26474 43099 23893 64340 80727 71776 20430 53691 73477 14097 22012 98555 39510 45868 93212 68660 48738 85279 86513 90654 72419 77259 69549 70304 34175 19173 33510 22414 78829 29133 11245 77773 57877 32701 89837 73113 40852 10488 84437 58856 61258 31210 27500 86890 45369 28463 56873 46879 39571 84453 54812 94367 24424 62745 17834 44293 78556 90308 90234 65939 10752 82215 88600 92492 41897 47194 71582 83233 75112 38334 47327 15051 52039 57130 5127 32325 15386 1649 30937 69742 37514 49006 99871 93779 37981 27515 10681 88703 13890 41350 5848 2664 70638 39017 97094 37619 18962 90016 26813 89665 44849 9175 63890 14667 11940 88523 2885 2316 84537 50319 664 58050 46169 71589 5083 83153 13601 40036 64525 98156 13706 61856 23970 67442 93217 77870 41883 36878 69129 75979 98569 17819 66390 20857 93228 38482 42294 9179 174 51842 57152 46145 9425 85368 85105 90997 16307 33751 4887 91582 96300 19738 13093 99781 22746 52119 46866 60936 72262 65989 31054 16423 50438 89264 56673 62576 83217 98706 19906 73534 83551 94898 60357 29464 70221 1310 43528 79938 3533 18418 15205 14548 9546 31393 46716 4169 87503 62414 35277 46204 16777 40157 58985 66513 74221 55627 6808 33161 59982 53258 24409 5137 47339 75210 95775 86923 13622 54389 51438 39544 9334 61313 95832 40831 99240 41400 75792 70420 32830 41544 73484 41765 59641 48890 90529 21276 62324 79235 73246 5748 77584 48204 1732 74991 55952 73898 42836 91745 5200 4259 22704 58977 32711 71578 64745 15012 9966 12970 37240 89866 7387 19054 20922 75430 76620 60769 89899 91413 76747 82305 947 12687 64496 7316 56121 7977 13472 98526 24310 77351 57696 59738 32388 49141 53612 35037 15231 88853 40311 18621 73470 28166 79006 23578 32205 78035 43889 43134 65961 91170 16290 92350 14826 88831 3886 57540 21673 94447 94928 82520 8419 19645 2421 84588 84132 73419 86897 28522 23806 72105 43163 7963 61321 44436 5367 71287 62759 90035 7784 14110 1561 75404 46388 64813 15379 88045 52569 11921 34218 3649 75184 17652 33340 95530 7581 4314 12232 72544 90963 33832 70584 92169 37701 23167 20070 86893 58029 75239 64897 81522 93499 69656 83223 55135 23665 82426 16025 76211 51697 4798 78548 42271 29929 53698 6321 18360 45534 94713 91859 86170 45551 26133 51504 50424 90536 49577 74531 4528 36889 83208 41367 30560 47019 56914 23208 73070 73080 60832 27873 50164 89035 33674 70605 86610 61411 21710 97490 31566 10366 74208 75185 84148 14804 64403 87862 37733 8789 88413 89577 45196 33162 47446 35185 12710 21472 32601 63756 26164 17883 48988 3433 95088 89291 55455 9719 21840 37661 29437 61657 85168 65157 73793 72420 28805 26874 32501 71134 57644 36594 4061 26396 820 51498 63038 23783 91293 99030 63945 97202 19084 93330 19651 24007 84751 50576 67042 99628 69748 24936 23529 992 27461 26829 43554 8515 22259 39797 38187 15501 92571 74367 34307 16292 26171 11719 36827 69279 45992 13535 66459 97032 3557 82129 23318 98539 80593 51846 52303 7860 73075 78353 40202 65016 23382 19736 81811 27561 75874 91525 54666 43983 34945 1213 12160 55184 4728 77361 67085 75333 88723 46423 56946 6380 32678 76673 38860 56963 95626 73141 14850 49219 70947 58385 87148 98083 90701 75024 12295 96736 91694 63626 1622 82176 94269 59418 18414 76245 86604 53468 58087 84692 44294 55754 15588 61154 90961 63924 37262 41979 83712 88715 51076 52769 96289 59512 22379 75359 30399 58236 61399 22650 89129 35255 91879 4496 76392 11923 34339 38017 84888 81955 38246 84256 63436 71923 3434 86904 89042 26074 96340 65080 17718 33955 66396 45226 74925 76819 89890 96170 14696 33274 82417 54818 79038 4291 37439 10749 70676 8328 67700 91451 66279 12738 59994 82117 60627 20992 93989 83053 15570 17421 99882 23456 48536 85546 62933 16044 82940 65395 29454 49600 99102 51060 89133 76645 36373 25776 92456 52775 7923 61426 32315 26906 32619 74637 84174 80800 11073 67802 1722 84133 57730 87773 55899 74350 61887 60430 17642 22927 86087 6201 5005 21251 66587 8662 27038 97552 38645 38182 70248 76912 12698 43479 19258 15649 33796 72346 48490 42148 63327 74288 65688 29970 60595 45236 12975 28167 34971 56622 80889 85678 57550 23281 83604 47023 75597 61791 41747 90072 15472 12477 45904 91610 70426 18714 32929 9992 29785 5194 41845 71663 64481 59147 30976 51702 72221 98511 70516 1614 97565 42059 18042 27963 76781 43868 73305 40750 44069 12137 22277 81875 94497 33742 15659 32759 41691 36812 34875 89997 48429 12819 34620 62665 22328 41706 62511 75227 7723 59399 52439 16584 14890 95186 49310 1996 35268 77275 97596 27344 69817 35676 44934 91305 33429 38851 37432 19671 61633 59006 6931 96754 2267 54348 17907 66687 21234 77716 20540 96782 80288 97982 10965 15933 80558 14649 64045 25543 21309 92566 24041 98748 65255 59098 41483 91688 98325 14611 5899 84916 34628 66713 13482 54242 97285 70052 50099 62986 904 46537 61205 90056 15426 73710 77160 24166 38376 87300 65546 20315 5711 59380 50321 90953 29174 55169 44897 40372 39011 53420 5183 58810 26763 92382 65014 84479 20902 86413 78781 39454 85220 52442 22627 85138 3843 16602 52110 36397 91664 92550 51503 23559 68246 99197 40565 88899 49846 37176 53790 4133 65764 39948 82010 61327 61439 92791 70183 43748 88840 5804 70404 64561 87522 54873 4111 37638 50529 19817 68232 61706 57854 75244 48697 44237 40235 41299 45303 68466 622 18391 34366 1536 24806 30084 9701 85251 69305 51812 25015 75740 64072 17350 97311 75064 92653 52302 45429 43610 28160 75448 14103 26980 24189 78831 57642 42278 50248 2816 83952 51987 41039 34753 49328 45485 70932 45153 70390 50324 73895 57719 73794 74162 95814 60249 26500 63237 2374 31005 46481 45308 74817 50882 71760 4883 63687 26675 46001 97912 99431 75272 88636 71952 38137 47959 59606 43736 92195 63335 10305 1496 88079 41033 25139 12425 68094 41450 42123 14318 68278 14436 95764 49696 51281 83189 37248 38273 60606 9696 36833 88495 24078 22283 9155 28171 55361 57301 48322 9360 18837 52426 27887 61969 31293 68526 40902 52046 5333 68624 77269 52765 4215 84319 18426 82040 2763 13002 15372 22782 72749 32771 2830 89179 23348 41378 57849 91954 82396 33057 66418 61465 15129 26258 72746 15709 19396 6067 41813 14127 27573 81237 9604 98181 3139 44032 33538 87489 92703 18260 10426 90647 89728 81996 37212 53606 68914 813 28266 8315 7870 36816 52641 36656 73422 17472 38907 78100 44998 70805 46195 20563 47158 59585 10795 19877 16018 63395 54591 30178 49197 73469 22673 77468 60139 67403 49036 86262 49384 58141 51539 28837 46083 92332 44105 96865 51506 66458 21758 27117 76203 51298 68952 39912 27891 57796 22103 66716 43326 70946 21581 50643 87396 71513 39922 4386 44617 13716 72995 52318 66631 2077 57245 58919 65354 91240 11174 22028 16100 64831 46690 70358 29293 18814 22152 40457 99223 27244 84451 44080 41257 37402 19256 51563 83123 20408 57702 97949 88939 29800 46755 74322 85161 79395 19174 72822 7142 37458 95435 69469 73525 51185 6064 64567 60574 11851 16830 27679 59383 89146 2644 82370 95003 25929 28770 87969 30841 59898 73685 11549 61487 54264 54388 21171 72889 72744 27484 38610 80086 44388 65403 95022 46659 68272 61891 79099 4637 97689 52163 35883 38843 98771 92742 49964 24672 1373 32697 78525 74589 16815 51867 7367 15752 23142 17949 15550 13962 19072 4334 72928 65531 41056 86271 15624 5564 47635 81468 22266 27211 58375 73640 28412 19239 44907 84578 17671 45034 32864 3056 15873 32342 66979 86198 68357 23359 76807 49168 28928 81126 33983 52356 28073 92216 68143 81500 99825 50881 77029 68873 77015 99142 65186 19013 345 75562 92038 35837 93233 71119 84310 4997 48607 17206 41799 23039 91052 50312 76350 36341 9995 16169 6622 52622 50222 93916 35819 58377 93360 73734 2292 66840 80217 96639 20409 73578 56688 8713 26188 10573 30597 70601 42526 93030 69969 20577 88039 29001 17968 69842 33622 48201 9540 10170 7684 37177 85114 79123 10575 17491 95458 57506 27921 99376 3621 23924 83901 31422 80194 83356 71872 63876 28257 68349 26417 60397 69608 1583 92262 89867 14851 34127 58811 62603 6315 48022 98525 89225 74495 63786 37527 68288 64117 30017 98020 56550 23322 43953 14607 34664 27491 2686 59429 96923 21110 84101 76015 98078 33561 99992 83996 10724 48596 37881 22819 44680 69694 17095 53706 47000 13617 55802 85464 31776 69229 6935 61132 42815 88146 86648 11059 62320 86485 33714 56645 37189 46491 48049 11111 89089 81007 37001 78899 56155 15230 59925 96339 72899 13565 62845 19688 55030 62046 99205 83104 82970 76538 70939 7422 44470 64074 4665 17784 52497 73349 17952 51649 45960 89093 30402 29623 96019 15991 53667 701 83967 22251 25369 43839 15622 1359 88070 89361 9138 55391 66988 80317 72644 76216 97569 38643 26468 33395 68856 12998 44542 2480 81304 35457 35552 65932 11734 94015 35531 93020 99387 2308 16267 42449 60331 39209 60586 9663 98582 52811 19495 15525 55672 45401 17262 2939 25548 10875 97048 33376 27156 31483 41461 80612 51275 51082 34903 61883 48603 66824 27406 30758 17929 52563 81553 64035 54608 56114 6027 85586 65547 48968 43548 99260 17902 13052 54105 40544 77933 25055 77432 63371 40803 43802 26416 21441 68392 27671 40427 48739 31419 93383 84633 64245 22937 94707 43691 30789 71357 9468 66806 97562 25905 36073 81322 47405 72834 70296 83872 19060 49503 67356 11806 4973 63190 62818 31977 35747 52213 1498 68753 52312 43712 51273 25590 77455 62069 38606 60409 24464 3532 53512 72103 13957 60231 95094 56074 4797 33874 94760 97698 98458 55810 91186 90021 75487 44292 95091 27178 96130 18840 9264 21628 43410 25463 37930 54074 74887 77834 66955 16116 62176 43624 23879 69452 24431 41145 32271 66913 39291 44653 69362 84276 70153 21989 24254 10048 20656 50264 18691 14245 70462 27553 62567 95198 76667 27928 70585 63479 31348 88969 60127 23003 3302 29681 92987 77516 31500 87783 16599 78198 52255 32880 29557 82745 58127 71132 56802 85826 61838 84267 93959 11575 52070 3265 42270 36560 89708 7530 37624 10611 52911 89692 78946 78758 85990 27819 2264 16135 79907 18227 88587 79658 82638 5925 87121 97364 60314 38568 67291 16395 9448 70633 57783 95606 57924 4130 99872 47967 74113 58363 5423 17035 10797 4740 63576 70814 51580 944 90259 48680 24316 10881 15035 86682 14026 65545 8554 61397 9153 11485 9516 88033 37789 43774 65698 64014 31650 78357 59933 4717 49497 12575 15136 41032 53478 47175 41432 8849 57856 49318 6470 17396 95185 5151 41298 798 81393 94232 36320 99934 24943 71197 1507 16856 49555 60647 15711 4126 16080 18282 96052 33778 93064 49257 79470 39371 64053 29181 34712 75129 79763 98506 9549 82360 36708 64413 33837 67861 27386 59553 44053 92017 81926 93545 39346 93456 33543 51648 72872 64349 555 60637 51584 8885 78601 41481 49312 88068 96124 51161 61383 38463 29848 19065 10417 15901 65879 19193 72991 9913 48414 10562 51229 84253 27065 59291 75794 63715 30705 69930 32613 55194 80767 40175 83480 15625 24600 39000 80752 67235 29309 67726 99074 30331 78893 40061 39563 48092 3492 19524 33259 94690 41846 98964 41692 46424 96479 21142 55530 82191 27358 49556 23262 4032 42447 33243 31533 86583 70896 35579 53700 507 41168 15794 68009 24300 28893 90470 34374 71577 250 64639 47272 5630 68243 836 5669 26126 8079 29949 63075 37827 47518 47091 23887 27196 47198 60709 53574 15868 19522 32525 18764 93661 86433 67906 747 72073 26077 71227 25142 15840 46184 42076 43379 40215 2865 24475 81072 82996 96156 14727 4226 76428 59238 80038 56201 22747 82588 12491 72171 54072 39149 11421 3705 53890 44354 68297 77604 32262 28067 99207 94272 99304 25585 63143 96060 16867 34776 63061 36120 4660 1110 82508 87828 13871 91540 17802 82430 65383 95536 40238 96116 88984 94993 94985 23562 35506 96693 17527 68590 10158 63661 61257 4070 54 4112 13658 42656 80572 4469 80507 17933 13652 58987 50610 84198 40665 87768 57060 59088 26215 75581 89945 3970 98426 3589 90661 8671 25883 67373 79985 76470 42681 40492 83939 51315 61086 30769 93178 38036 82385 81473 31928 63146 54857 68646 9612 1953 29686 96250 28927 41359 82322 95687 42678 26441 51982 67280 80534 73614 81398 90453 77713 99969 26292 24373 28344 41792 32960 32942 66394 1654 8102 45423 77184 74838 55533 11803 47325 79697 66034 59657 54618 49790 4850 15296 82519 52617 23270 58543 86932 69249 46275 52359 16365 34129 56489 9991 43559 73324 34041 57944 21412 78404 26589 12874 9128 99533 61620 99578 18535 69509 79045 95652 62045 79456 75516 39449 27621 73973 54446 66433 80112 35180 6065 64332 89672 8256 30833 18862 98299 69799 54764 4463 9680 92475 75480 61799 93281 15861 67217 31032 19023 50895 73123 74891 2944 57850 58469 69897 61307 84808 88815 18087 34300 27203 46593 77640 19954 49517 73418 68843 40872 72786 21062 39589 57518 38596 90962 43246 93574 87368 17086 41075 17004 56378 7988 52568 53352 48855 60695 97869 86582 24253 89436 44050 46101 71022 12897 84379 64363 69448 20410 8090 83373 51805 53811 65638 89962 77997 91010 91887 7506 65740 67211 57915 7434 55784 54821 96287 24139 33150 83852 98937 13606 38882 12140 93486 96397 25551 20179 90376 13863 95383 38469 90240 50801 33644 91063 3634 65263 87461 65977 22586 61260 16378 61603 57408 24609 4781 5970 90690 90298 61365 56170 6777 55990 57367 79684 4441 97378 61740 23320 195 74224 22326 55335 44632 87961 17150 98 68912 95136 64247 11145 27567 31666 69645 21349 82011 6415 30709 12044 85961 93053 58895 43093 54518 23440 27699 88339 15121 54927 80522 10841 98035 77556 30877 30212 25681 63050 13941 45294 78550 84971 5767 20818 27984 29792 75491 88265 49307 92674 40389 26226 99286 94502 50393 40572 37418 55652 28957 29070 39937 89560 92676 13646 66373 83383 32486 64186 53000 62256 27676 98869 25975 97922 47016 29191 29077 7389 63555 74960 76853 91783 19879 72825 63499 89501 53462 16555 98270 98895 60707 10952 80601 8189 10137 58283 87131 36300 23922 53007 34995 1378 47035 97215 85531 1326 34147 56954 6308 72898 33244 1455 97901 90156 39573 61214 2801 54182 87046 35679 60751 45980 70235 43491 53059 66133 63618 31972 15031 57019 95560 44183 61380 14434 91529 84473 19260 83333 11388 57983 57993 70171 60816 20288 57572 93753 81305 20926 1469 20731 4529 77386 30636 40570 77014 89938 57992 2521 23542 42946 69095 67055 67005 45275 19491 10532 61055 66382 86510 91654 97420 91711 36701 1925 48058 91348 37702 66987 57651 98744 47608 28494 13794 55809 85050 76191 73300 24029 42379 80695 8948 73386 10707 83351 92805 42818 63793 94142 52168 40382 29461 65389 99926 44611 64008 16491 81011 58865 30637 59061 6598 67694 66106 68878 99648 94094 82888 20167 93447 9430 85707 44256 16783 33330 94787 82610 27896 14955 1605 42620 94981 12741 18175 34833 4752 12969 80174 89168 45926 78522 99366 28760 91811 33792 10108 92743 22433 62274 27614 72229 78387 6010 85485 5824 41877 99937 13665 79152 34211 98824 91188 23627 23839 5966 61076 70611 82104 31801 35861 68984 57449 30802 41905 52333 27055 60100 53493 80974 21188 99847 26245 95912 52556 75774 91167 33890 15110 20817 8651 59356 12094 53866 237 52922 73529 8509 99474 55942 82950 80989 62936 42638 35153 91810 40364 36758 26701 71550 68572 63823 20968 32924 72846 12498 5464 14305 64599 21217 33621 27878 35376 89835 53959 12396 21318 12989 16061 1028 85127 63172 69041 38880 70518 43976 89370 42853 33279 63375 68944 98397 80249 47620 21015 33318 89391 16315 13232 73062 62531 62271 15177 14449 17811 29188 39842 21200 522 33109 94152 74799 8196 22505 70162 76373 19470 70078 5096 7555 8323 76388 58007 50788 15882 57590 79391 64227 6987 39041 57653 66026 43062 89491 94947 70480 29593 88391 99372 37364 51285 37524 22027 85850 7534 79488 67149 72240 70394 37368 2760 33469 10159 18007 90759 41078 76248 76031 17239 77233 93740 76151 3818 84258 34950 50209 25500 11103 92530 52060 89695 64944 23796 46761 83552 95721 42816 55951 53957 18929 15925 76718 13774 51114 81662 74513 25617 77910 45057 13791 610 37586 86799 66762 10944 52466 28282 27691 30938 5453 75047 39080 75360 78157 805 56305 52480 83319 66842 28276 6856 7905 42922 11517 72207 39178 25826 40172 79566 1923 75319 88034 59125 32928 593 30285 93909 48384 98901 97334 11140 93880 83908 80597 19460 38570 72569 30658 87306 30936 69743 87672 90699 21492 99755 73884 98974 26673 67689 50556 1465 57549 13129 31660 53047 51234 89464 85414 44816 11569 54725 63510 17746 57894 87999 19938 73170 19887 27680 23509 29549 63934 91893 19468 92311 70179 80629 84079 30752 80536 62076 34162 94333 26057 78161 86471 21121 67529 96382 61196 81339 93953 23947 3217 18976 58953 34706 98711 92133 41976 6078 4615 57453 82700 38460 35456 53528 25434 99022 33585 84182 90617 95681 60028 35118 45644 75382 73699 26445 77920 18217 90484 13249 93520 48849 52342 48670 85339 69869 38272 18469 32270 44659 27470 76990 68400 24549 9969 71617 17249 11451 75069 84194 75508 84480 62038 8959 92916 88579 72720 33685 27836 69006 10029 97078 58247 21552 35767 51416 54132 86030 24935 33240 74091 69789 78765 20019 22549 37504 21099 99536 95433 7008 5800 40123 63837 98638 1565 59589 80336 14172 13744 20042 29321 77416 95494 91813 467 30760 5129 24340 48530 16351 65442 12909 80435 81332 8556 62688 3863 76740 85618 4536 29427 65995 81532 13573 39897 29971 56643 59229 92233 79522 26753 11771 18615 93678 56010 48032 63546 38912 38150 99556 51310 67758 5490 49196 45684 10518 88293 67165 38755 27861 95637 94989 26999 23315 96734 66159 56515 30587 24103 94892 10085 76527 61131 21549 53043 50542 24827 10314 83488 89257 7139 7375 25348 31968 69215 66249 60994 18363 94890 76416 21859 38532 51447 33197 7100 66760 36275 84590 27905 4123 31400 20688 2084 11935 90519 82306 62796 74841 61913 12205 66862 911 51540 67287 94026 91974 83481 37066 81615 95532 26099 23987 48394 17880 93391 53445 61219 28251 95154 31101 75212 39214 81442 37554 76482 12815 74670 37962 44985 63082 45786 58880 95365 15736 34695 61793 96902 52335 44312 30745 21101 95994 59151 6155 66281 74530 71380 20562 30906 63467 69265 59573 41637 96684 62363 77961 76237 69978 44729 51317 77023 15837 24664 47356 75234 97883 24207 81243 55464 33424 63821 85590 71623 43049 99860 81898 19261 56534 34520 53004 26065 52350 91962 60636 92370 22140 38998 17577 57219 75506 57806 61367 10915 3941 9598 52588 93749 54992 52079 4453 9587 44523 99245 94929 43304 83161 57323 58043 6148 45490 14288 37372 68436 70711 75442 13317 4378 33977 30901 49912 53843 96457 73956 6771 35961 81364 87872 64590 42126 49516 89510 52846 9834 98730 10804 63507 88789 65163 50599 87663 17565 644 41267 36773 21489 968 32488 50443 77417 77904 21053 93603 27687 95297 90122 67663 23203 40318 63175 74820 2919 60813 8938 80841 55379 51621 18832 9512 69117 35280 99693 17506 72200 1032 70228 79704 44494 82218 50530 22007 13751 90974 71640 96933 74607 16404 9885 50821 10003 55544 88073 23257 15194 31190 71297 36317 49322 58876 78696 33309 24187 41920 56349 48535 76533 97124 44682 70766 55848 83930 82778 27047 88126 81223 63076 26439 87665 25085 75010 11954 38694 10481 1377 89940 88856 12483 82340 20287 48086 78918 58310 33777 22034 21254 25353 19177 50065 218 97231 68918 7710 79961 65299 91625 17687 98262 23693 15899 58365 32428 42489 88909 4261 67508 65296 75189 23366 68330 74452 54068 11903 86328 59448 12936 2029 52435 10077 80162 52066 56015 1820 77856 90848 99521 19068 16024 68828 52917 41612 55127 84300 8691 95324 28214 63406 51746 15985 11949 64862 15374 6842 57585 44788 31437 83364 23598 4631 91467 29344 92978 94647 63727 77388 22931 67228 95168 27804 67015 28900 49356 49366 39263 4383 56410 26205 99793 37956 60240 9747 34394 54634 856 86444 32360 80188 31654 80759 93245 10234 31717 77998 24970 94626 23638 47819 79719 51170 21582 26764 68671 50457 19488 78871 94774 92447 77968 34262 22953 71756 3176 13603 85564 21667 92061 56677 42765 40171 24398 46905 36641 53991 38766 92753 26604 93288 1168 66890 89229 92125 64228 7788 71757 2457 43373 42039 35282 21629 23773 27322 6850 5996 20565 65270 1006 23983 60150 5535 26795 59650 98118 25397 79316 58979 48263 86726 44058 32885 73604 10990 70071 99973 89154 86200 41405 50862 34140 99436 11529 4762 25313 29850 50423 766 41724 61024 79072 8482 31236 44950 84669 48128 83510 86831 8970 13728 41738 52845 82209 22541 58534 32147 89594 24909 38773 79384 82619 47889 59165 35765 9575 84640 21230 86017 10026 46312 62889 14325 13552 38828 26996 66905 7218 82325 99027 21551 87789 15768 91921 50101 55456 1874 30748 78474 50078 92100 90104 20592 31095 88238 27967 62172 19614 14747 28612 71434 17460 1767 98478 93834 76276 70386 77758 39798 12704 9224 49143 88933 13465 10828 82446 18222 13067 33114 20097 8380 30030 53872 80426 83362 4916 73020 69191 75295 15429 59617 12995 20709 80754 64609 14537 46010 77919 69160 74066 80547 37483 97161 17083 77768 75301 38950 52217 56139 41943 95589 94335 63131 46126 66176 23921 10035 883 13953 80221 41434 32703 66818 39661 84172 62723 44005 32347 71180 30987 8193 11777 92237 94122 83348 51937 52735 3040 91027 33086 34686 64631 11500 55157 71376 5133 32432 93638 88640 21899 25320 89876 38894 76224 6983 71624 92097 12953 48135 88113 69556 14104 52408 64334 79393 36895 68050 11269 14873 17415 63583 57438 45338 18736 56112 6268 61404 3083 93620 24567 20117 52706 66091 11832 28350 42842 86274 65017 6454 61116 73974 46223 78410 74008 56254 71851 85582 26571 10103 52508 13408 74562 89895 98867 69501 28729 25645 22080 35279 34868 55225 98086 32876 78325 92404 32775 99834 78834 98455 69503 79957 93507 73538 8740 98861 67946 98109 35052 42896 98913 56217 51530 5754 82232 51663 46615 90315 48246 33399 43879 1854 55871 47113 16204 63188 23823 61089 79219 12688 18118 33249 16165 56385 65574 82704 98868 26568 94801 50495 86978 88616 25549 50906 92489 80929 36365 17117 9953 48110 19307 14294 1971 39450 85886 38757 37707 99835 24895 55507 49719 61711 99925 18332 95325 13930 74978 89081 63080 66501 4942 26128 12888 48917 46802 32141 52862 25560 62520 63547 85150 28537 29904 83817 53230 78108 12881 66743 79386 72548 67252 17857 78130 14225 79939 91908 18490 79159 48228 62016 40225 23766 54427 53480 84666 55441 83697 50553 14368 66146 46787 65332 41038 91269 49594 73603 39075 18263 52288 5122 60608 75135 6793 53624 58509 62537 25321 33646 86058 98032 62125 86637 19243 29758 96516 21632 32327 31325 17014 50777 32506 87875 48558 74543 73483 54810 84969 70806 24876 35402 80544 32384 79987 61522 4852 94207 14859 48169 17921 14080 28331 45430 37917 15841 60435 62234 17180 99297 30654 31457 63366 67040 51823 28728 73099 79667 73041 22119 69360 82398 21347 93278 37744 26238 39058 97670 55632 34862 39599 26618 23873 40316 27375 96853 72315 90566 99177 7705 49500 81665 88531 85876 15233 20643 54850 86263 36644 41863 95938 44500 48783 32456 73643 77671 68695 88949 82916 57394 26933 39018 45903 84503 44046 48600 61854 34977 98646 33618 49425 78983 93468 18446 25013 87825 28015 94086 3174 67036 28423 73069 11542 49341 18464 69252 60861 55905 8017 86155 5396 27459 20459 66918 85071 99575 90898 93609 17056 76537 73098 49151 8792 67865 12043 19112 22054 68000 77756 75711 44703 17598 44995 57724 32263 76936 86698 88691 90553 92835 36204 34092 94715 5308 45043 33462 42838 64991 19487 10539 9483 93864 57263 88655 24674 63178 13659 38457 44837 73323 84156 17248 40185 1294 91260 43778 87926 99483 88663 9208 8044 15128 49589 34641 1398 18313 91023 83787 81636 67728 2912 5365 31499 22696 50367 12471 38709 9332 19336 85145 44043 54897 21378 98674 85659 30808 7672 3892 74391 75776 88938 69611 47312 75486 96914 86084 10793 22138 21380 51742 56220 17181 67513 92285 19122 19150 32464 19079 69989 70796 7081 84731 23331 18202 95780 4022 89988 95174 87613 54236 30493 82971 80599 69081 15766 246 39085 90761 70616 86293 94177 73122 88026 10328 19398 71722 79224 97456 74094 94261 77725 90936 23091 40609 58055 72497 58113 27583 90325 41545 20223 10657 90861 55804 35067 87382 65257 11906 48332 67972 57298 30964 97762 17927 93717 57816 5393 50116 93994 65447 43138 84773 34243 94035 1620 99292 90937 74207 62170 76920 76337 12806 16046 1696 56075 40993 3785 3598 65535 8127 53703 56498 45708 55049 65701 37954 56345 80773 47965 1705 18515 19999 77352 98286 39681 52531 56848 27673 22123 60559 91500 46548 46362 9643 71594 19968 79829 98896 71182 66017 81583 89947 79308 35911 43641 75177 39873 81644 98854 75498 12362 85630 39020 77178 95120 64013 55746 11474 39316 92112 79896 36857 95586 8659 35522 79192 32573 47280 96544 68112 71445 74386 72078 36220 14962 93905 50640 25933 89788 76582 81949 75259 90646 84829 40002 46516 8150 36743 21545 91804 15974 651 21417 68768 88491 99859 38582 43006 90230 71843 3614 54787 11899 75342 58161 88362 69437 35351 97026 92163 50648 52265 38710 78803 3725 89360 5657 55554 31898 30954 47451 89476 91541 79098 27837 90602 74714 54086 26772 66311 89585 20360 10057 40423 33567 85687 16696 59095 19562 59481 70088 11215 29585 55017 6046 52146 46348 38782 64103 56189 79304 57058 35104 39412 24284 5309 42869 79415 8135 58573 22992 64023 44475 62614 46705 56334 25972 50855 5846 19088 91828 59972 65079 78698 77778 64830 63800 31714 29849 6959 58280 1997 13854 11008 80315 9129 4981 7799 8251 83388 33978 91218 39857 90501 72621 89710 88795 15852 3870 67945 10783 71264 56232 26084 56542 56033 52910 39823 14350 76908 26719 78754 8098 72101 56292 24295 49671 67710 51756 73926 68840 35721 27279 54109 12269 29249 78715 43055 11632 52679 42168 54378 75781 93257 14029 36977 94316 91011 44976 64671 95147 24530 20806 93501 23209 29963 88785 4784 21400 9742 36482 52800 54750 34244 8917 65290 41409 92372 70829 41103 14192 9168 63695 21024 26559 99389 67230 2905 61743 53565 77168 8714 13236 17678 10884 60429 64537 82673 67251 84899 23157 31131 35310 26083 95454 11609 9828 10638 16324 41473 40576 6548 16406 59556 78526 29262 84060 35870 42185 88736 31708 69541 86769 60238 42967 94104 50001 5082 77588 34113 23750 40562 24531 36173 58709 23737 31906 8279 30670 86289 70375 21334 8109 85179 18460 70074 89153 76976 66047 15470 5437 26756 52424 7895 49053 36692 52921 14679 74293 82818 35955 43558 98292 3601 95754 24117 64480 86634 57356 12714 73987 42721 32049 13595 14036 32348 57385 65664 21807 68382 75724 66093 28744 42097 30822 17246 80588 88540 18411 12875 12910 94465 92185 73333 22742 13281 32655 95573 49808 99464 18455 81027 13016 74437 80406 28262 22389 96574 98510 19905 53500 2719 39344 21981 29553 52635 59983 18729 70184 53956 28263 62973 7211 51165 74890 10177 56676 21013 62859 47654 10070 576 78462 14791 67351 4858 71455 8324 69338 95515 67399 9144 81025 15677 83456 77045 63703 81879 51375 65478 47159 24774 39438 89030 61420 48960 15391 72842 21835 33007 85006 67038 63657 50191 18575 44627 567 82123 49992 91274 8894 82809 50935 46983 91243 60979 73124 15075 8037 5959 82961 31742 36427 64619 28289 77299 61316 69714 63318 88537 82245 64679 6180 7535 3391 33103 74456 54633 19170 81103 76978 74395 35818 31783 44271 38555 18599 11161 64775 20023 52839 47497 46864 16874 35092 58282 53406 5566 24309 76877 82865 6251 31386 57662 75278 10647 56229 94255 82009 87479 81835 41633 14867 20200 12203 42644 30596 71398 98586 8049 11502 64202 99252 34462 38254 73138 99251 19187 40466 77916 87648 9404 27020 58586 72285 2453 79916 15636 98697 66879 96261 35291 93674 60749 71435 850 65126 13462 82761 30436 25150 68126 87132 11638 89763 14329 80721 78735 82856 78408 43024 65751 69585 50896 1572 76808 19948 78210 67411 64459 14903 45594 61211 59454 47974 12259 54795 45682 47829 48359 70548 89413 68459 31065 44221 47759 65274 58474 63389 24823 95522 3873 4825 82650 93050 44158 60565 66364 22971 56806 40928 3185 50997 63795 28454 32897 82208 61215 7175 82204 54423 83944 32831 91088 51949 92227 58045 652 36196 57606 68381 41154 28998 2583 84363 57686 3894 64510 40863 17515 35138 62543 95079 24150 45066 54574 92180 3282 60224 97282 36845 36516 40608 79613 1076 57103 70192 24998 79853 6724 30098 72000 5215 88266 50403 14823 20571 8876 16050 48437 41903 73010 71738 70977 68617 76340 19339 76595 95768 13589 61004 28730 44637 3001 99155 9197 48812 6633 61658 66776 97821 23337 25737 64017 72823 83440 59268 10801 78498 25969 15528 27306 7274 93343 39244 29822 44190 37322 22654 7450 84930 40884 40714 95339 32538 43961 42413 37598 89235 16176 65233 22520 45407 31108 34138 64086 93999 8359 32461 70993 22399 54658 3805 96537 24352 71942 63433 2223 25486 55812 37087 2957 75875 36096 66495 50483 28052 12620 35637 15745 50092 37945 69516 75555 92424 97264 10399 89372 24778 25526 1716 61542 36922 7111 14822 1472 92892 92027 12642 18679 10197 43299 27194 59662 31041 65609 21934 26732 88618 42850 93504 70140 57846 61303 25955 44980 88842 66377 61676 60536 96710 80151 56371 60551 97061 79759 27858 94275 25934 54920 26982 79471 3654 1114 61766 17047 69091 21967 27750 78358 28794 51237 52664 56478 42078 34024 42703 69431 45016 4563 92491 27622 37914 67083 75074 94162 87533 40403 29602 44456 14291 27946 73026 67295 67953 91830 21933 39805 15406 43120 80423 23239 4817 42486 34913 99568 12666 21294 35865 61501 59946 61277 76124 75687 51496 61894 37233 32785 98050 11074 31588 43091 65200 59973 97812 20271 66977 60876 8235 77643 57965 99787 60651 39958 65269 98639 73553 24277 97808 97987 38091 7162 89705 32559 39426 20283 99731 92483 14595 8890 7049 31490 71462 19533 35681 24755 68055 45098 26550 63914 97842 31589 30267 72915 2823 16582 42396 8142 88127 44957 78547 66695 14067 9520 5338 62941 60702 58851 37883 76101 79074 7683 45233 42214 16824 63316 52888 34356 88378 22812 32007 49802 40083 39407 49965 26305 20079 84625 55740 75998 6544 21227 50615 30288 44893 80191 60808 30244 60233 34804 32556 55690 30865 96621 41735 15262 76270 95064 63168 71694 74953 74844 18134 91303 52160 62758 8379 93762 85723 38258 55413 5112 25446 26293 3258 36748 11733 75086 56852 32499 78088 3064 10017 78866 8658 64578 2101 64580 75976 79871 56743 4299 44444 50547 93597 98015 60165 17508 24334 43949 92478 21145 36851 60360 7130 42648 69709 98090 89197 38305 27293 41416 35158 49226 37337 9442 9045 45638 25125 139 48546 3314 88393 9522 67063 39753 58978 46405 5796 41542 72759 93410 61628 37279 99607 98376 83182 75201 60066 39759 15683 82004 78185 31058 95205 38543 38760 63881 20225 89239 99289 48891 33844 65368 51898 93399 91826 49887 31392 14444 2852 33757 93562 20356 4837 35690 62394 3227 2635 45002 54079 80570 81734 71944 37395 83795 9847 52176 73207 43631 12707 66349 97397 39163 37866 26411 36803 46442 39774 85424 28127 91933 12638 77285 19974 69112 2607 22361 49480 28625 41889 32069 99623 71339 29981 64272 17133 17452 93556 52037 91646 228 11528 30438 38951 90078 60355 14555 46834 18060 38935 17254 67999 85052 20405 93369 84025 27318 95016 57048 94593 78502 37765 78114 38547 53400 12452 26315 72309 79480 33605 1574 43981 65580 33789 76448 80343 9807 36119 85813 44692 2809 9475 688 86499 738 7843 8105 94710 89965 14678 61306 60067 98769 96086 28662 1826 88093 10646 62604 66360 4810 40812 16590 25562 35604 28987 23477 26190 784 26689 45244 82575 46858 39060 72097 60014 29063 4281 78133 36376 61896 22649 9690 1494 17365 49207 45151 30154 19297 41584 52116 25541 91410 24391 69322 12844 89252 99579 69155 21166 45295 60615 60722 20510 8561 90524 13704 77644 84246 12461 47575 23238 2250 65105 62455 39839 65815 46498 36778 97474 73673 91398 20713 91336 73308 49611 30365 77847 79840 14359 22183 60625 98542 10967 21698 44284 9672 76175 58221 15934 19796 107 30199 40005 58084 8398 19706 11835 73319 61150 59207 88643 90641 59193 6873 40792 40453 63058 39527 42619 62647 61871 49186 53257 96281 94377 50141 62070 69480 6444 19450 53580 50256 22574 5315 89533 99396 62270 14465 49400 21351 24430 79359 61478 1629 44812 1222 56744 82361 72178 18270 84746 75739 38480 64306 79531 91066 21812 36232 77102 27383 56845 66334 6920 64406 37903 15341 73928 47309 83494 14699 70427 40802 98779 90677 95524 69316 94795 55436 23597 12965 84992 90201 58694 20784 27746 90659 32377 46107 31363 36597 52820 60934 95054 74766 77502 79338 19649 61950 6450 68489 51548 71728 90113 39496 90907 5949 44710 33235 93130 75262 23727 50071 48847 94363 82841 53475 65682 13270 76763 56797 11991 10592 76985 41335 89644 87793 45036 16343 71512 13628 21084 37798 35502 86675 30762 47402 52534 26342 10383 11452 5629 51938 72426 64022 70056 90782 86315 17416 82198 58471 29289 176 2501 58371 94442 10185 96032 44036 16673 82089 27939 48606 48142 16206 78300 55276 77959 75944 36730 97774 16479 92453 45413 87896 21880 94506 53068 80928 36518 95864 55002 51212 19763 77786 9982 36637 87494 5262 30511 79222 95047 34734 92924 80119 59719 7738 94730 32000 88346 8817 38188 24492 97519 74264 30799 26969 32680 41984 32844 40528 34345 85811 34731 16942 84053 72943 77258 68013 6895 42629 25494 14125 87127 41356 42256 17108 43200 31880 20883 93373 88319 62983 96224 39777 2738 26177 74060 14793 31702 82015 27568 13458 98940 52612 17817 61171 62635 7735 27623 62969 85702 91740 72944 44472 10155 41256 84920 34844 24973 70617 38891 58491 22775 61373 58419 9357 75059 64089 75063 88203 16068 87420 27552 51685 3054 91038 23305 40125 70524 15860 9912 27227 24176 28565 33840 82618 62962 52779 18011 15616 28779 53521 78288 75389 63841 38115 88585 17194 14076 81046 28599 36270 86130 12832 77383 73891 12074 68759 92680 26130 2008 75587 65379 69165 67791 56635 12170 43044 22952 34772 67438 5230 3849 58012 75160 74306 47003 9353 85601 12908 39986 70291 94727 53016 30502 41087 83760 2827 94830 59486 61256 63427 52444 25861 11637 3529 81813 46764 10209 67425 78461 24883 31768 34756 80735 58294 88286 95885 15118 35634 43552 50633 57136 64208 31219 31405 9927 78677 47394 20180 8602 97858 95850 20807 61653 50019 35432 84050 51191 46144 65056 2133 77392 33601 50030 51728 11705 97226 17053 39931 86577 16456 24271 8863 67804 2152 84676 25753 95706 69764 23274 28949 10232 40976 71996 37033 69088 56311 7001 47412 42740 52611 31231 88198 57741 48989 24825 29409 34884 57115 20256 47116 73527 53944 1435 47537 1905 11516 6142 73176 62353 91272 57181 74525 46980 9302 95801 86651 75780 63923 68265 46694 12096 98624 33881 64653 16550 25576 65970 36355 69540 84348 43052 19529 92211 5449 59607 76711 30184 19126 383 52023 71139 35128 80882 60110 11547 42378 83327 76663 31394 72140 96791 81409 46774 74544 10898 20438 61144 73668 7864 5951 1688 66993 35549 72012 87629 63332 36902 92899 83016 95829 19724 3730 94008 91493 4722 64282 47487 11034 9358 23231 45452 64327 67711 14801 64322 49951 27817 47748 99070 51712 94920 73405 89808 75483 39768 43855 3613 66014 63469 48756 87980 33965 96126 9387 86142 56749 46282 77419 1230 37213 39957 45056 60470 19516 32413 90915 37517 40643 94553 40580 61661 16601 16347 13104 30360 57145 68592 16048 71032 57233 83813 78708 53213 94625 17549 55540 50778 38655 16915 57135 28486 18726 35990 3531 55142 55445 11422 96183 64919 68933 83730 19883 87437 69515 95104 33895 74804 55103 74667 18213 4346 43525 66383 59734 26276 33212 87123 77163 68178 37692 17781 15091 99980 67110 33281 20368 67737 74228 21798 62668 6943 58670 69780 36066 90161 56933 90944 77677 17063 45642 31553 71608 39026 64744 51797 99727 55734 84867 98176 72820 63055 14165 52610 11521 25842 88436 11558 42395 48334 67526 59993 29545 85948 70636 77529 844 56838 32747 85682 93413 83085 13875 39526 91903 76816 22443 82236 47541 19784 49968 10119 25354 31044 6603 79761 74561 93976 7043 82465 118 88449 93947 28583 94318 13330 28622 7106 37530 20338 60817 23398 23137 96283 53194 93366 93387 31230 4162 191 62279 27107 88897 3044 15786 37208 86783 33260 31459 15884 15715 32222 37493 5050 25386 23948 50060 49380 78688 69774 29034 4218 9019 53178 1082 6928 90976 96442 53415 95820 75085 30444 81694 58769 30343 54506 19094 339 6860 21768 53642 37147 10025 58381 21399 63123 28018 44462 43912 3825 93276 31582 42399 5918 91563 40451 57510 32616 20594 80918 94590 12310 42804 69424 74709 61033 17721 53810 45746 51703 60421 13768 73067 73274 84795 45662 15042 80648 29374 30409 85516 69388 68167 63163 18420 61121 25917 43928 69384 26375 77950 11611 16452 54915 92788 25620 64738 92445 43493 65875 30902 5661 72358 73085 81840 24374 99732 1990 20938 5486 93843 89287 41386 44832 14911 61880 25259 61772 92754 86245 57641 81469 23067 76442 92347 50043 53179 24542 21302 83778 19136 13713 49096 36580 65691 42283 1383 75885 95957 39319 68580 26289 70741 41316 72199 17474 24791 16489 41345 65949 41091 68087 94280 41366 91972 81851 68979 38387 19347 53584 71647 8739 19062 12709 94546 75514 23666 32672 64135 33818 47384 17653 57381 60332 14900 35225 66799 76593 12435 12734 92528 46129 98060 2513 33861 76517 53144 70815 53948 12087 52660 11310 60535 47994 42417 42735 96772 32265 30042 67118 46732 29005 99398 54216 74140 42156 90073 60549 91990 56422 32731 64724 65833 71605 42052 13551 9691 41076 16120 61670 83465 91177 20696 80212 4836 5725 67922 55881 75303 97195 39188 33562 45768 11647 87501 65304 39867 85664 47704 28978 12258 63638 69564 769 21969 91449 67930 57500 55588 72183 26812 75755 37499 52423 82297 20536 14864 99034 66290 20781 26721 5988 8438 87586 88407 61390 50340 37869 26904 60778 56404 54688 5673 22023 14524 93043 8687 23323 67384 95342 11010 31463 62572 52242 61128 30634 27584 40156 80111 73280 16797 75472 38902 22449 74810 90144 6164 81260 64277 7974 85285 70539 61572 7087 71496 30881 62751 56407 70143 56052 98924 12601 70964 20534 10288 99421 49080 15936 8430 14009 61290 68700 82636 54393 48291 86821 94404 12562 32020 96997 11477 54687 25362 63645 79904 35466 56383 69026 14754 88433 30426 52885 70481 77681 60216 1282 5271 45623 49018 8223 86771 78523 47823 69453 81660 66193 97210 77698 23421 97832 94815 12876 4570 1485 59960 59937 4078 37538 27940 33123 52504 92580 37769 4035 90250 1155 23606 97790 73672 58651 19435 28838 77425 52308 71870 68600 24452 75332 76783 49102 81345 15730 45559 65963 32990 83881 78194 85209 29664 70021 70224 18348 52766 44280 56208 26039 27532 99320 38416 84905 94196 1862 83094 65537 4190 84392 30461 37785 45498 69361 18248 91405 98383 88554 60985 43349 71560 11548 50512 49418 15889 34812 99091 62582 60968 93530 52050 69193 13574 65414 92363 50976 70859 18620 34574 5610 19561 10835 30090 80549 55657 58950 22951 83558 15290 44426 55853 52230 2531 62399 69963 25246 8907 82912 26845 77215 7702 68287 59203 7941 2182 88236 94486 47101 72671 67781 62054 89553 35331 87102 31146 34313 76683 38027 1372 54408 21863 10982 8700 97718 86206 55541 93133 54959 37277 91334 75191 60188 31941 87084 7668 7770 16134 75048 58804 38820 12811 90609 2584 55070 5962 6020 65762 97251 94541 30102 11511 80427 71399 75592 13730 95448 69746 49316 75522 25739 59129 46708 95442 90824 24785 71386 8103 97915 84699 48994 83625 71033 67357 98845 24523 89191 27073 22005 79520 76272 13814 61731 82781 92841 70288 90502 45810 16198 90180 50967 41531 71345 42073 68504 80980 40087 93684 94163 30932 82661 52936 90083 57389 42362 90326 10586 68376 88793 44074 42192 20623 14650 28208 206 61768 45202 37622 88106 78675 67168 58736 88602 66921 45256 34201 44233 93206 8173 47655 30860 78707 66595 88219 31914 10605 1096 80811 18816 79217 92217 16202 76678 75716 59590 77093 39260 40640 17068 54341 45091 44768 60856 66030 32451 86828 19775 53771 79058 13459 73232 96152 94346 45667 91309 7263 93748 50707 71229 87387 68035 63026 54867 65929 351 26728 54232 88235 81016 84080 85237 12869 73540 94922 72130 57077 27625 24862 62296 21172 43457 37526 53328 3789 52642 21601 15632 52085 31869 81044 9594 45529 57392 80884 33383 33782 24564 73106 34145 47130 18211 63608 13694 1314 18817 20754 76013 16822 5631 14476 51058 62539 24605 24537 17021 13951 9551 67648 28588 56719 74189 86055 51979 69705 28538 85455 60094 7752 20298 73253 70361 68786 81969 5741 36795 55402 49714 79195 49599 58587 98838 93275 39139 28726 87809 61983 54872 48507 88753 43054 21300 5358 69847 56861 30197 28505 72518 77301 21639 96885 70095 14169 89627 93840 96563 61960 16440 93152 93780 54263 57567 57374 41888 57929 75323 49542 92832 48007 32017 22936 39714 89111 58412 10610 54442 92542 58676 94862 84691 18881 10349 62008 21631 16999 61101 91706 18677 23176 42400 55092 79302 47659 45119 57215 86063 22159 61073 55429 16821 17171 68921 75263 45921 82319 20143 41222 79000 87416 77144 26097 67770 61223 40641 47042 55826 91939 99164 68615 65180 39442 91477 29190 25472 79663 42770 35298 82571 45388 81936 53693 66155 92352 3297 73896 11229 88534 74062 2687 55352 53104 13632 77031 78988 84274 52984 84104 78304 70277 87271 74348 55861 62210 57384 79100 32454 42004 33998 56737 18559 8267 8362 33539 5555 1312 87185 31355 75044 32346 99795 17020 32237 32374 84854 28042 78657 46178 32570 10860 29518 26392 68721 9938 14273 51533 43263 70639 1390 70204 85528 13570 79822 15065 78942 2699 88989 77443 34071 7377 87120 68144 54731 90755 21638 88845 6700 67925 58911 5139 431 61956 8966 28372 32151 80074 35801 28367 14200 28638 71835 45775 22727 72681 94828 81756 50842 42292 8721 50402 10489 58983 64270 63359 65634 96965 64249 14528 79379 56827 88754 40085 79022 83633 9074 14010 8601 90304 93333 24924 10295 27315 56879 70797 25904 28145 70379 30376 94868 68534 24884 41026 52314 16987 18337 14466 13165 32839 20878 96488 45940 29815 50497 51980 97335 86685 49635 2192 80797 3141 98566 73816 10773 49184 26932 41981 24454 94381 1323 59302 57450 34728 66570 49766 68803 18448 27347 64951 12433 7935 89525 69542 89274 71935 11099 43275 34560 58112 44894 20535 23672 94418 55196 14708 11164 13297 38408 87525 96861 37910 31013 2853 67474 47962 74061 82441 72376 96608 50948 1599 36271 88725 30753 1525 12797 48369 90165 38729 75057 97053 77864 21985 93002 82087 24098 46710 47025 80914 71389 59708 84031 51449 98680 78409 26161 24908 54996 91090 9911 30368 59830 8802 5027 20030 45205 20764 52192 14419 5585 83932 30242 48517 41475 38047 62432 7301 94746 89588 11107 95395 57808 78447 35308 17295 45774 57559 56462 32465 3852 40546 22567 82553 77156 38961 25141 68314 24389 71977 40205 16010 94212 31601 93983 24238 65118 36607 50067 93081 55310 25375 42290 85832 12886 12746 79618 41381 66131 47602 31362 72471 12413 83099 88951 92398 77358 32889 59424 63577 50211 51064 32812 73423 29610 88470 45232 49420 34575 57829 37480 88181 43919 16339 65628 22001 52512 31676 51934 14954 24336 15970 30681 51164 79772 811 38846 65462 20479 60611 36199 15634 15030 30108 48720 27080 54293 12807 71131 56619 93132 88810 11019 93858 8730 54057 33136 39119 88383 42075 86332 22427 10538 15433 59388 27190 63863 34530 78473 35993 57715 99950 98552 735 14241 20659 92971 29499 62361 12290 9631 49021 46674 11576 13252 96601 73396 58672 15188 69590 41000 64476 49272 3431 51572 69348 68895 33673 74842 60621 5914 63044 13054 76955 36033 33238 32617 50538 65759 94528 28855 71130 6809 28708 15322 70928 12537 33980 99792 85592 11633 83505 76838 15419 86147 68755 47621 774 7928 61650 1921 46601 9867 96580 26747 8964 94214 16716 69998 95441 28705 32782 7512 13529 27077 39847 90596 4011 13234 66540 99413 45614 83171 23389 14514 712 92368 42402 86689 89813 69366 44793 73606 3706 16349 78321 40634 50377 86476 19551 98803 57440 39006 68898 15247 72624 6307 62295 22348 38816 96348 40044 71925 95696 77405 93466 19730 86754 24468 15410 16111 25550 48649 20886 98658 36074 12999 92357 72386 61099 48364 80685 25867 16316 41632 34617 26403 90694 94512 92183 36484 96080 60505 3794 42573 48843 75580 8433 80075 81547 71217 53542 63519 513 58903 79502 67820 48927 745 70406 37828 61806 14519 15614 35028 33104 33807 53641 40358 27222 8483 32987 89416 12426 67001 30494 11561 71813 13089 23058 64768 80341 10186 42542 13127 57886 15963 824 2703 64833 3035 91171 53894 53835 38379 68401 89949 11287 35284 30313 8293 24136 28793 18310 65284 36200 45958 14844 73584 62220 90510 42523 1713 45137 56153 6736 10680 23413 60431 31280 6945 80094 31075 85943 91850 33152 6907 97041 51614 20032 10890 52793 56506 67402 75204 69902 79300 95134 54437 33733 42223 58201 72734 42820 429 29875 51326 29976 32798 75901 47140 9655 32641 29474 79204 10151 15620 9525 81428 38691 28499 1171 25787 38433 77555 38492 61378 44039 41579 73739 27661 11126 17517 83650 2559 10337 51829 18086 86309 11248 64255 69632 8541 23299 86667 17693 19344 67175 67076 33800 77909 37385 14881 9303 85423 30173 95172 82219 87352 31719 98486 38393 93659 5420 56325 86014 39665 31288 75636 43321 44697 38737 85021 24803 81414 26462 84167 68673 40127 93727 52515 90241 83645 3171 69616 54537 73704 47354 20681 11124 76574 25749 53385 86435 16571 24131 81426 18108 46374 173 97717 69751 41992 51456 74357 35485 28396 2032 13547 16635 67894 44088 97760 87273 72599 54815 93173 70631 47243 95321 74945 50869 59243 26669 18156 40264 81884 34335 14210 6699 65469 41574 4940 5025 19926 31542 64315 77319 79883 65690 5081 5908 96564 98237 26446 76302 8597 21535 26309 43827 1321 14409 10912 34857 51062 8448 30200 85224 18983 76688 82418 83900 91006 9065 9553 73433 94958 17532 85264 56638 15447 66160 95843 26026 4029 42769 74110 25987 67259 82160 69170 4891 57375 55027 10272 72179 59192 88582 88205 95722 35664 91951 53158 37285 96278 46857 85234 51143 28607 97363 54332 47882 29377 53787 93061 68063 31718 64434 16295 78464 72880 96541 29112 42862 98207 70847 63615 38439 8009 19106 28896 54855 71809 64330 95371 2998 25210 64472 44107 41689 75067 97826 22096 73083 95710 34236 7256 90556 18990 41216 58345 71968 99250 77693 22267 34759 74258 19262 31586 74935 29296 96709 77440 37436 14025 82 31808 33650 91848 5637 63872 59264 34820 89908 61792 45889 59635 96215 51374 93512 39835 51627 29148 67258 36323 75403 12299 78790 29424 93629 67785 20512 87827 90465 47203 18772 22906 62379 84643 39643 64994 20501 88502 47571 45869 87968 29131 19408 51065 14731 1592 68188 3480 7209 31873 36933 57397 65694 74462 91372 36633 64299 32645 78109 22585 13228 43180 49166 75121 24292 24756 3232 80952 82073 25415 48076 54716 38198 29490 92760 15850 9409 34899 15423 17284 2872 79774 14367 26335 23030 20310 23089 13884 55807 85012 29089 46146 87598 49752 52347 32339 23493 67405 2251 91400 7262 64368 22038 91033 19801 53343 29310 24420 34683 77020 97983 96972 77532 4172 75890 14924 1417 27893 20599 7325 28591 66162 63223 11691 83132 55907 42079 11848 98605 79451 242 31868 82975 5937 65613 71884 54902 25713 44717 15466 72506 6916 62431 70665 26643 69794 49298 59130 90852 38485 6337 83698 54224 67106 43236 39360 55600 71476 14222 17349 8253 91242 21470 85615 25805 46273 56274 51978 44899 62426 1978 99782 95892 71958 606 68134 58778 67969 50258 91554 76497 2838 98962 78540 62715 52686 21799 89943 99191 69537 83271 78270 15743 22847 9839 61010 24388 51390 64779 54861 17470 42221 50490 48838 55791 18193 67126 31556 78182 67344 19422 6220 22519 72020 65952 52938 31959 23349 34917 23514 11121 6904 46753 63353 38202 14860 78915 49550 70400 52950 55125 11439 93711 8277 23186 261 64711 95991 50399 78819 34501 31299 85049 49295 28534 64883 37246 62529 38438 4778 34271 29431 10527 32424 94301 67994 30106 76608 76550 257 48240 12073 62652 78697 25728 96783 97616 2145 92114 58595 2202 21765 27272 37457 75872 94342 89574 28843 84681 85684 841 52931 59538 20475 64524 35234 43790 36292 70247 46168 70262 32498 32307 10224 87434 78092 67569 32814 38216 44773 35527 27444 26246 55146 53083 1054 63595 97497 79004 1175 69786 30156 84071 24843 61065 89757 67717 8681 61825 37281 38392 18126 63963 93122 40997 31951 31730 36318 22455 25374 81921 49459 55292 99462 1527 23850 57751 79356 75697 76071 16449 51757 90310 79953 21733 44401 69702 95817 27709 42657 16345 88804 40086 39314 73007 49115 73403 88739 29465 81654 90911 25577 57243 53469 56463 77344 63607 17175 97096 48828 83541 3595 77379 91744 16646 97884 56137 64997 25761 71717 64269 52824 99475 22984 2215 89872 78037 27397 39755 62112 17719 88333 88758 78128 81210 61422 51253 93551 54508 77963 40292 27816 15929 84942 84449 18905 68711 99364 47963 89248 94514 3541 53036 41259 40137 99561 95236 47995 1157 71233 75855 37475 999 29931 81737 36620 24276 43430 7103 65710 73719 53729 75026 7143 33887 52447 88567 6159 37749 66761 78743 71793 11044 37583 58204 1666 24279 49023 18382 78235 31604 52177 14583 25858 74103 72379 97422 4236 79530 13725 44605 5087 4619 3349 93193 96338 50609 85727 63629 15623 39844 63312 37238 18308 43137 36212 87985 40503 71683 10624 82748 56799 42766 82127 87661 31673 38390 61738 84007 3145 56526 74168 66571 73941 29751 99008 31196 71583 99788 8795 71546 70875 24762 43072 87807 44219 80193 80197 80447 72836 33319 99047 55749 7778 39724 22678 38303 14027 19507 78365 79757 42114 99900 49872 1602 3802 34608 51079 29439 79529 28444 20716 62350 2430 34968 78805 88977 35462 75524 9521 62581 60868 19161 54503 4468 16182 73284 60239 753 62491 97758 32041 78254 49595 42397 60114 2021 25227 57602 30434 2726 68153 33695 44884 13537 78149 17918 461 89206 18899 97455 85830 25144 79430 6349 6619 77944 65426 23476 41642 637 85904 89550 58047 94270 5759 84770 81682 15491 61558 54237 44586 88563 71053 15962 11257 18863 61862 55211 62656 41479 76948 86429 38329 80237 97838 88734 2528 40545 96174 30261 34353 46063 26608 86926 51367 8909 79327 45545 39081 30933 68038 78022 56558 69344 93309 36372 54500 12653 10775 21739 69295 9903 92873 21074 97951 64054 29649 48450 26322 39727 84819 47188 14022 76407 2542 44946 32087 58738 84023 23342 39184 9066 96302 28951 10079 42704 42525 49352 89884 89437 92704 60742 46325 67503 11856 61577 49486 53647 78898 44314 15207 12464 64314 11525 42171 42697 92922 72195 1438 24180 56991 94282 78452 86125 12690 66211 77970 25802 49098 1725 27133 7168 79601 72350 86533 32540 81465 34715 32661 99713 29073 98753 90119 73318 78760 44489 35417 88632 20372 35512 72388 56985 90878 76005 12657 58010 69182 52378 26652 73165 9825 12180 35386 34649 36685 34160 61877 83309 50083 57521 73133 15392 43846 68284 16283 99018 86840 54129 50673 69630 84422 57736 5905 96620 68040 39116 89169 25151 54003 79114 46060 88823 65050 42956 25886 42908 49623 40589 31011 46762 59286 70216 10658 70289 13322 42472 21523 84649 97723 23410 95507 88883 15271 48167 91060 36842 32241 76467 59537 84339 73320 93082 68710 80451 38006 60853 85169 82834 24443 90850 83861 91214 51562 72777 98776 61174 70090 44325 42640 85868 63641 45093 32313 87205 5125 92911 35519 45899 28795 47911 60297 42446 15971 23138 5474 90794 27757 91235 3755 70106 96037 36966 32824 10897 39460 56637 15113 45893 13627 62402 93337 21407 65151 66272 38613 87718 32808 70035 49701 24154 64281 47590 14088 17962 74972 40741 16220 80181 55711 73631 39903 83831 79205 89734 21213 1533 69812 66757 92920 70207 76432 30025 91642 10258 78047 39963 23078 57372 76366 77248 76942 96121 26249 5051 94266 93296 85846 46427 86763 27304 17307 23076 81551 12982 84931 48500 50178 27312 54661 33629 45721 76957 84406 74955 23683 32269 27243 64497 28946 82944 5812 1863 56036 10733 9822 11101 80392 58582 5417 18980 89603 48328 65092 16835 95338 7615 14732 49716 9137 70080 44482 84280 89623 48598 96561 56597 25325 40402 70010 49836 73328 83140 5356 33384 73330 58246 15976 23755 8776 26626 16402 22498 40016 8831 58323 5414 75576 39804 54690 97426 21077 70657 48427 48048 30254 12891 76820 4639 53146 66350 1109 19976 15227 13596 58500 44356 30612 69678 24580 92094 50184 6017 93978 14309 51508 996 5745 13065 79650 63107 21277 13848 98887 75292 9916 10338 31641 45535 72400 61466 28647 16085 73831 72182 53171 73134 7907 2900 58841 2350 50093 64707 26216 25274 57599 9840 89691 17182 74248 89483 85870 24371 36124 67609 64791 3392 70850 42199 29086 60841 78306 33035 83292 7326 60444 92954 40040 72339 42969 73046 21850 93442 15430 72877 26162 23256 87351 2464 53813 53517 63545 10769 758 28860 89281 40428 90440 80083 73047 88652 83648 28811 16583 72203 18898 54285 7605 96341 28953 88848 64006 41144 10558 46545 88037 2767 38898 39735 54777 89347 62433 11794 28424 25598 17229 48186 52121 89362 46185 46336 66086 82503 69731 25447 63008 98172 96582 1848 27792 79303 86877 25216 67696 38989 56436 66660 56754 46419 10974 68028 20733 23271 92557 59011 64365 2070 1841 86519 68396 47031 28506 75626 90004 38649 80261 83549 49559 8084 83770 22603 73289 46465 54683 74943 83632 23934 94383 18699 21341 18586 32410 64164 47676 65054 65864 25266 62909 69116 43824 70604 4381 88308 17550 33532 80573 30065 84522 75598 51472 72674 29290 44012 13689 59452 9799 78099 69750 79398 5948 14499 54526 72556 27410 37894 71740 48143 70528 70447 81134 8808 40354 13468 42934 99864 68307 69080 57815 21898 54650 34534 78537 8851 66846 80020 3196 32741 35450 50358 86955 31713 58862 63565 30768 15749 94571 6883 64335 25102 7874 57865 30807 44378 53513 76854 49921 71909 83751 14926 10753 26900 20217 73064 41215 73758 74852 93048 59484 73834 10421 19902 40047 7693 33749 74757 19560 42476 62722 92828 62663 74613 71768 58434 8848 34768 59733 15610 51049 7277 6563 83432 92576 49952 28786 64261 92488 87970 51861 77428 40053 16838 92276 88712 22554 8225 40386 73900 64461 87014 73802 83358 90589 79803 84523 67543 50619 60151 18098 47716 30834 44473 84988 46501 66171 29908 17363 24318 96164 48282 44165 62118 67155 33897 87179 69734 96393 70713 60175 70998 39852 83727 43565 12260 60745 51733 65884 22431 3111 47824 17079 48382 79119 17487 24174 85103 88556 73063 21282 49002 46569 17261 24891 36936 20914 56497 54412 88360 98436 97786 77648 55988 31192 62804 94902 10895 80405 72591 51583 96974 56906 57483 28386 91671 64337 35761 3535 36958 87188 61434 42861 74230 6402 53268 19249 95634 20772 67608 66650 6628 89933 3375 51859 21726 69635 73917 96680 81777 12165 11442 47668 35627 98661 29694 1397 14281 58869 90054 48399 32740 56736 24700 82921 99247 95106 51993 38947 18770 2200 48014 92026 51033 98894 35532 87225 84627 91162 5421 32474 9061 58568 41203 69205 82608 41983 42857 98946 17842 80899 72523 76450 39175 31436 62041 56408 45058 83229 68715 55294 12631 82054 94695 40542 13546 86855 19147 96095 81927 40729 36716 61485 62637 54642 41564 12265 46639 17846 68390 8878 76786 1466 96661 46994 18433 4322 4775 4725 24143 53292 31784 50293 38966 99192 49355 24031 95298 18334 90225 41634 34658 73596 25952 85820 11597 61669 48893 59710 5731 42108 27419 35693 15182 76154 64253 99380 49677 14821 77563 43880 33665 16669 87792 27892 3857 86922 97167 89822 17317 92034 84109 43026 36569 59294 90362 4904 97515 57795 72972 96504 25715 32386 13760 57089 31920 6585 11345 95986 32852 54901 35111 43623 94515 78192 93101 38144 79571 17072 25609 81789 50624 44852 6057 24880 38104 52138 84165 50130 21125 40768 93636 99511 87673 55197 65251 54543 79835 89124 65363 63610 24197 71912 14246 19201 27489 6818 11440 50898 86534 29187 45487 93720 83185 93393 99263 50818 34926 75156 85991 71790 44504 77956 6271 40917 46147 98805 48261 67801 53950 72664 38509 72312 49925 11741 44737 85708 93237 43566 32894 93649 29559 98819 55322 77626 43440 7345 52040 21164 37654 20500 75033 1026 74798 4224 90392 71983 66866 90934 87542 34707 92700 94731 36866 10134 56103 43241 51529 70735 97711 62661 93778 27503 74161 30848 96513 59497 88492 455 98826 50824 42867 34782 31488 3353 66421 50261 3867 93172 85185 37979 28094 14842 65793 22136 18424 63354 12507 56280 95779 67701 90533 96136 45342 51886 52376 54978 73626 47338 87103 58759 44324 91690 36399 44315 96255 22060 23272 84448 9961 57262 91572 17554 94905 73275 70226 3983 2734 88077 46831 31433 58761 82678 63273 66616 69865 47247 2526 44249 29449 33708 94733 83474 40670 90010 3061 71711 15 49937 37776 62073 57474 97704 79246 60997 59683 17744 18781 32918 18916 7689 12529 94485 67456 45627 48579 15553 66312 55741 21003 30671 65720 70508 7717 99601 42691 25651 97508 53396 27144 33432 99594 9232 59546 59561 11963 69320 69066 16919 91644 3447 4680 87259 99426 81123 59611 45222 5859 48965 48066 83690 73748 90145 91824 59760 93634 30704 63971 1289 30099 74073 2301 28179 28310 2471 30963 62548 33919 64491 90975 6760 56321 51006 47414 32467 16151 47813 41977 59102 18259 77336 9040 70451 42555 93294 64178 20308 98932 74406 53380 76480 72661 11030 23913 76650 91442 16264 77065 64066 30528 72934 47046 60330 8676 84959 49641 60752 19089 12863 57705 94170 94899 53851 88564 54218 51270 76321 66829 14853 52903 47652 63072 16638 19169 11387 80226 22299 97242 48629 2975 96553 410 24758 69412 1362 1195 72537 56235 24717 2566 72018 93 88371 39492 45245 44978 13860 26139 84226 3481 35231 41037 67564 61702 93231 98633 58290 90395 44540 71317 80675 70413 42029 90126 44258 55961 80505 14690 14752 55579 97409 45100 26314 76849 4477 36218 2558 52056 64541 32969 35688 51445 75131 60148 14701 15352 36589 46128 8528 65082 2198 23075 84813 30010 3936 76038 36386 63549 29566 46590 67037 33930 81263 1674 29589 3710 65568 49431 44387 38793 52152 58731 74966 68081 18103 65115 2627 88566 38813 25148 1937 41840 21479 90252 70212 57610 39392 73585 81700 18720 87649 66651 73782 32997 18261 90559 97809 97820 40341 98288 62599 70335 17287 25743 62158 49650 64060 15595 70989 80327 29950 35952 32954 18592 15894 13456 84874 58610 44296 84963 50138 28305 27999 25476 57329 7791 75622 26924 54316 91161 24130 33320 80926 34480 92075 29182 26506 74826 98091 4467 84199 8584 2161 98628 80751 541 57814 94521 28308 51818 59295 32121 6407 52988 15918 85734 40778 84508 44377 11351 92681 70064 78656 66503 80396 31578 72952 76768 25186 20960 50921 37975 88979 24798 2398 51704 45540 23290 83521 51773 9063 91470 72900 82954 733 51892 36394 1098 66669 40012 16988 47227 18820 5774 98764 79185 32352 79189 6693 4793 85544 74992 63321 47163 32160 44915 30232 97664 37607 7421 60958 35184 42504 18618 84779 35848 86962 87640 44184 50168 27235 14052 69975 4608 60528 26472 90983 96081 89579 4831 67815 89515 38883 12508 71149 72194 92502 37909 66199 84822 35182 22987 40631 87803 83288 28711 20685 99121 77297 68529 14897 83155 34615 9678 21219 75553 97077 36374 91616 3269 81075 97781 11021 6413 57343 9829 96982 42536 20715 84629 21791 50366 16062 32930 30855 78836 78676 71054 14136 47958 55822 32832 41019 24613 40472 72840 58478 61239 83986 40522 41556 6252 74238 54528 95933 52141 30095 34350 65020 68733 75017 7258 7260 75298 73164 57427 64603 63384 83329 51301 28692 72145 43023 46574 18421 9975 8230 13886 29829 51778 72317 86028 45816 94820 66413 83984 8611 54860 12750 82337 82181 58102 41987 52933 18589 39913 91401 53958 3578 2115 20561 76153 87343 20342 77717 34876 85806 92020 80169 19953 79371 88412 89359 86824 44452 20686 54546 33698 20130 49819 88894 52482 52869 61470 47973 75175 59788 59115 59756 85665 6584 43318 51479 61798 44577 26585 75195 14173 82500 1228 18973 65384 75425 26394 38045 26225 46415 63719 52907 91425 62017 25214 3827 30631 26777 83213 48093 30920 18335 34612 83195 91432 48380 35065 89263 76186 47335 9486 19548 78056 17754 56581 70566 64715 64873 88626 2485 13815 85965 29997 12633 92810 29837 9282 74163 7721 88288 6514 43985 96054 66218 6157 23763 73590 43184 66833 62459 22777 33450 71979 11524 8469 8919 23926 48311 34830 2411 28774 23992 58154 71747 68499 28547 83445 95101 34007 66417 76557 98058 49116 63110 39906 40210 49313 19520 30186 30852 44731 12067 14006 45370 27153 12250 52180 63435 59688 43308 58687 26611 23109 85518 3546 98873 69506 6792 47342 40897 48445 8459 95029 77878 92320 52578 27807 63511 48300 52175 76726 28985 27037 1624 37553 69646 30644 48503 80855 8164 46473 61361 7125 15519 69875 78499 54461 21971 67846 283 59595 3378 42589 9190 90712 5028 63705 37258 98949 43860 58033 16363 19737 46880 57254 94882 56213 16973 8134 86419 21403 94242 23729 44782 98587 25098 29975 55298 16786 89730 4095 64945 82855 97316 73229 54965 70301 77420 10851 71806 32481 97025 70459 13582 49549 63887 24849 64346 92250 96195 36989 64107 58724 83532 17895 62623 28335 12447 19406 62095 76182 55912 77565 67794 84728 78578 54864 57745 17238 14522 26507 56705 62415 2825 28897 50381 54165 74371 95288 48220 59277 39609 89265 60367 7604 21913 19289 12307 4947 43209 24465 49220 83121 85527 98224 99017 85002 18895 60555 39362 26694 13981 27134 23858 4042 19609 55876 48351 6540 598 12082 59137 27265 96538 19420 97351 4121 81597 62558 95720 56931 10567 80915 13661 71417 13229 74765 68062 88717 5729 39711 92135 37450 86424 70142 43815 37010 79585 74046 74448 26693 95548 49715 81253 40621 57876 33581 17399 33760 92209 36984 78806 79223 5160 62201 66496 30217 56546 28049 90710 71377 57874 61511 41086 38833 27466 77620 27093 41233 77902 30806 5455 68924 71824 16011 8805 12239 76290 27151 24230 17809 1371 41493 75052 41188 9713 62726 25044 80948 78430 73893 85483 95730 44901 9895 44364 11207 87229 29684 60410 12742 6283 52054 54876 67675 42220 12854 71671 70065 46385 68935 81220 52920 37677 69483 81899 84430 61265 17953 3307 47386 60422 70317 43494 38511 43467 11868 14825 69860 5865 69671 25188 8366 5500 36100 15153 42384 83640 30459 41678 23316 97317 85055 83720 8321 27646 23008 49199 81447 95625 73359 42755 73033 77306 28361 2203 77641 84512 25793 95307 38240 98842 66529 49521 97417 76911 16244 61841 10335 1766 49070 25006 72576 74307 85566 650 82886 98179 46328 86239 7063 15183 35779 4076 25777 83764 71530 56162 29004 61710 83022 68545 11929 28559 87909 75917 91615 64440 1231 7785 71081 36098 27579 89307 43108 83680 18752 82948 57475 674 86619 87281 41580 8994 44150 76108 40108 7491 3617 50966 3898 20411 71542 97817 96367 47544 34453 56512 47276 79931 90394 70970 35984 83210 48873 67429 69828 30441 95895 81342 85448 10776 55882 87167 18176 99508 87334 22568 87567 77199 47296 51178 90528 78940 50635 21839 78950 73089 46567 51121 58993 99616 49562 23044 37381 13720 89181 93329 91487 86641 62410 63013 33094 20103 79666 54617 52286 54758 92831 98385 52311 78577 34699 2972 26723 48814 67174 32899 14129 98909 58147 81880 7869 3424 10794 2500 11913 85282 37565 2613 13975 69560 59469 73428 40476 97056 66057 24620 402 38679 83707 14630 35010 77996 37623 2364 39336 27521 38888 51708 36668 77007 53160 58771 90689 80832 93546 12152 66938 21681 8979 7628 14971 77493 96366 98999 99295 17938 29380 77195 57468 53051 60458 49303 40824 68575 30124 98942 90447 32693 58515 86765 96017 83534 35525 95119 86960 20638 80571 41462 62267 62638 9914 58631 75990 91792 19405 4396 89015 61607 29328 10812 85895 80141 33985 10221 43146 49193 7542 69140 84536 18567 91499 68256 1639 3239 95102 94259 62009 93280 54840 62629 35214 14191 85406 2183 21043 98530 50284 81893 11084 52305 38209 9316 81012 77337 82148 79874 87713 72528 77535 1275 58668 99772 78175 13414 16606 33398 81192 84170 92076 33108 55351 81533 68670 58729 57206 41369 6876 64764 35996 25449 20700 62311 90517 55840 80912 96498 56252 73661 34752 37236 98914 93722 56276 70026 86559 35166 15723 61816 69520 5273 33465 23625 85457 12456 46536 48614 66822 86281 3287 93188 57902 34186 23095 71567 31707 31313 78059 29453 81633 89592 70465 33852 83879 64565 83822 10985 18317 23174 78787 82369 74864 83736 41349 6887 18791 92286 89160 36471 25482 63142 86871 89369 88496 25984 88291 33069 95638 40368 81055 40526 88111 29102 35081 91276 65911 48298 1880 14872 31360 98189 50435 49132 53189 34922 35919 21925 54802 2 89192 79432 12820 6293 69415 98616 94353 51688 87024 63176 29434 79902 98708 47904 80460 80294 39012 63457 45133 99329 36052 69944 11955 21721 35878 17775 92559 82081 81970 38490 66608 58606 74908 18827 62725 13250 90302 12252 10446 61103 13314 88284 28278 69867 67966 71593 21398 32478 7839 1177 57234 98364 85612 28616 71311 17018 75118 99961 4091 25084 40968 4145 7232 45264 98516 68248 19580 2971 78199 50076 42411 68454 53463 49201 1824 33098 59883 50215 16253 48954 11839 17680 50038 44616 11106 19180 48287 54989 28104 9917 79138 35563 2159 50887 19302 50744 26116 61003 89114 83729 55623 6483 79921 18826 20230 91799 51019 30000 94053 41454 67757 17896 18857 46643 1384 3530 99437 17467 82551 53476 23056 92258 51851 41737 30023 6661 6367 87391 99654 66438 68839 38561 78505 66877 95553 87395 42200 9629 39975 62090 65267 31195 94792 10744 76220 45714 82279 71005 80342 14313 50149 32058 96928 77559 86368 82077 98813 43628 47417 31046 3118 33128 73674 11541 75481 12718 68260 66184 59729 1480 52900 64262 81502 29194 96802 6740 69345 54197 91343 51226 10113 23550 20935 40536 20663 12594 1163 95253 64741 3173 60133 99002 11405 87754 23930 48902 42661 14286 48028 67554 3918 31205 19943 11371 50794 48035 41414 97938 57633 81641 75694 63766 17138 23160 97430 37559 24142 42736 26452 63342 26456 50349 94975 11445 63946 17373 48974 5855 78318 31070 8115 96895 33231 98439 31957 45732 7760 68916 65266 2370 23801 97064 17727 393 76396 47711 65576 72925 79941 24731 7396 35089 57577 44434 4511 30583 75571 68308 57728 41365 75190 32238 32154 96545 10729 45234 20527 71372 47802 18546 69304 91712 86863 65623 60154 78710 72446 64104 76910 91968 60035 67986 40022 32163 57421 1350 35294 35572 24540 89981 18031 62083 8634 8992 66194 76901 66856 84504 31495 36143 58834 18678 75955 23156 45877 73071 16683 94711 63849 37739 91384 44603 77635 2004 15645 89392 32409 53514 97299 54766 87819 51241 8573 37197 8002 31548 20155 2743 36461 11040 41938 3416 33486 74286 92887 93433 94951 50052 59893 18692 28934 83514 58815 43742 63021 69607 10341 69883 63686 69819 59634 40907 15005 97582 1828 90217 92204 49478 77929 55094 40198 88876 65871 98136 25686 27835 9217 74216 71353 24369 79651 85488 75857 13128 93672 23047 76088 94077 82220 25173 45570 41665 40381 73991 32036 74387 90773 31421 97927 54495 8501 95503 34783 46416 41670 24953 69000 32111 62129 9364 75937 37029 83657 71830 31115 10983 78446 81137 20509 88539 45641 37655 25668 81763 85347 45585 51000 34154 99665 90624 91092 20362 76026 78316 18 2174 28138 95998 83262 6629 92986 29885 16523 65773 13635 10143 68203 90045 35782 72758 86397 61484 47361 35715 66547 26114 22460 81794 51836 65696 34579 23060 9226 44347 11120 44240 39457 21871 40793 90060 26182 70345 89878 19804 13028 50036 61229 71751 66524 34495 6222 93024 24203 90114 59646 20084 12093 90467 25110 8787 62244 56196 28983 48141 3538 45336 49610 95369 57872 19480 31302 55985 64388 27800 41880 38639 25986 72219 88665 95436 87615 61011 67014 54011 69788 97388 19747 49593 33781 35974 22225 57519 3696 65243 63804 81918 71650 64552 5563 3597 79716 79060 3189 99235 60568 84049 32919 14794 40307 97587 63067 25647 88830 69667 10368 30192 96591 71964 14232 2974 6683 8947 81004 44989 21209 42302 42044 51493 76238 81930 56695 36111 76958 58198 19250 77362 37666 34430 8411 98197 20090 82525 8132 26406 44068 65246 70532 11199 6966 41596 24361 75455 30870 11014 6369 79044 11232 7726 64356 14884 47726 18338 61173 55353 69139 24941 92149 83896 32203 52630 26825 59717 8478 51727 39669 47310 73442 5237 57472 19553 63714 19282 26712 79818 9946 4491 96364 93211 56960 38997 84788 82981 25648 69662 58042 54184 45332 65181 62204 37872 80960 52840 18719 11214 11168 426 48222 41879 37175 27955 42421 71474 56834 95963 56734 15581 35244 71288 93690 17120 16458 20275 31823 14041 43218 9647 21511 32156 39879 87504 62685 12489 60080 22177 28991 91071 26738 11882 43642 7558 86996 37662 76660 19949 68780 69318 75497 31686 21711 11201 91533 65211 51069 8544 38241 70703 43251 76566 52832 77866 92287 30904 42665 40371 4413 9313 68934 3448 22689 68316 53090 6782 99073 78320 91677 97305 98242 89083 99296 1789 17686 10529 10486 21735 69535 79720 38434 14947 62739 67873 96704 50849 82489 15679 41972 30824 59278 26602 62246 40443 25078 3937 61975 15387 37420 57532 90167 21201 23897 26854 17325 97321 42115 87799 87135 80654 14596 3012 17882 33997 7518 74222 52562 51095 72410 7308 29274 90591 2064 17998 84463 11251 50091 26248 27953 6719 50912 15878 69979 26167 80626 90221 36531 199 26544 52386 34456 92030 69498 12748 54531 40554 20323 75208 27927 14541 61372 20920 61279 66874 3204 67666 55212 67769 9790 22824 4939 53337 60487 86718 71648 84704 41934 21022 90949 37642 13096 90865 39608 40129 13085 47850 32553 14674 86034 75717 86085 55409 11670 71492 75559 27915 30348 46256 75915 97943 2585 68784 62596 66569 11743 74749 85620 6970 50329 57098 13771 18965 22792 77757 92454 85479 48389 1526 14689 9779 26095 87129 54682 78296 68337 51544 2395 44191 6639 42135 95738 61072 77877 48441 220 30164 18347 87234 68698 13331 69950 77087 81105 24885 49474 20059 82579 77052 8233 87585 4634 7618 26513 24918 52325 46093 16750 56912 92142 56148 92377 50956 58344 86860 85288 92610 83539 9621 5740 85299 73592 18233 49651 26927 92682 94813 54513 82140 11703 14991 61665 6996 91065 31247 21332 33524 44971 79739 75426 32543 19732 92198 45873 67988 99212 71117 39509 79013 32795 60462 65845 38896 93553 19634 48181 15965 37494 32925 81219 7160 93926 23116 69588 8916 36586 70606 75787 11824 27192 39949 81971 7552 23596 48232 88662 76140 11790 31235 66445 82501 44968 37355 87881 77284 67133 26100 65808 95624 15037 25107 81156 6270 22160 34499 43656 8247 53915 98215 91180 81295 19987 32847 26960 31859 59084 43840 1659 31995 78063 50607 98853 27051 51868 78344 57023 74279 4376 23356 1944 8030 31169 12301 59159 15104 92683 92654 82880 8147 93934 38001 37290 10722 55152 70827 73684 46804 10109 3564 96543 12614 62441 49462 1018 71919 16965 589 66508 48119 80799 27310 72633 4338 18553 58968 20950 8903 73500 43672 80786 13819 73285 48677 60278 85803 29959 55326 80057 70774 89911 58879 13145 42128 13026 68959 45558 278 53008 6292 99361 19144 48248 61336 81218 82007 86494 2386 39365 61483 46452 23508 34009 96372 46067 43391 24890 89860 51856 80561 49113 6984 17715 92035 68347 60721 86971 86439 45381 34954 89306 17000 27889 78625 95273 55143 21000 32172 68463 38402 4348 33689 77223 60810 36175 42659 31074 56776 12754 60716 42204 49734 30328 68562 29783 80665 19861 16123 86101 6325 93991 18365 43474 72682 84609 39561 60777 44083 46782 95950 26528 95604 53183 84278 16415 87094 16552 58679 28085 88912 95293 83313 19179 4547 29938 6172 31006 56693 25706 26434 72582 35361 49842 53603 60469 32809 63313 39193 73060 45378 9595 959 54098 34556 97919 58337 54265 85557 85949 82201 85079 93677 55224 50492 26290 74330 41909 80688 38595 63693 30139 92710 2536 70589 40284 6373 44599 13302 81645 10165 38422 13918 91565 74212 87871 73360 32848 64545 15209 67755 98601 32744 93219 89638 23414 76190 21435 53805 33267 13800 63859 75930 87725 57387 64171 86650 30137 11763 14295 74775 28767 349 96392 81168 96128 80170 77377 51131 91704 21688 80266 34135 99482 22751 608 62466 97907 88822 56884 86621 85395 56353 75111 92266 87453 69280 86163 15238 93897 44047 30027 52727 35757 70907 97141 24801 93310 54342 10802 41102 84584 27506 12240 17561 84996 50020 79163 36609 7032 22667 57617 79208 32113 6946 40188 48047 24245 72765 49660 72861 60088 54001 40789 396 81832 6937 19012 78443 8182 32202 83479 42137 18467 12656 91825 14944 94883 42406 84690 7293 10602 75567 97152 12113 8675 24519 93505 84341 11531 13701 66865 70656 68552 99591 70382 10970 13382 43794 23423 12242 53302 72153 66603 40967 21445 11289 54776 55739 12029 43461 80220 87366 89475 97560 61692 34901 21559 60512 44114 13440 15607 7841 42132 34438 93135 38170 12470 22523 32882 45892 53941 9080 8508 12033 48786 9639 9921 5070 60328 26839 77967 27388 4783 81090 42698 28936 60349 5115 11515 65899 95813 71239 56696 29967 8117 69358 11692 90550 83565 97191 70217 17800 18374 26564 53856 28759 21987 19024 21959 77097 73115 14845 79990 16738 78722 39550 55307 98044 26120 43268 52280 54339 1413 30413 49435 85521 72373 86862 63432 49429 130 65506 85565 76278 97283 44908 96844 23885 61039 5307 45808 86879 87 61596 82613 26737 79591 29635 13521 48949 54571 66681 9444 67833 91085 19324 93731 14709 11600 72059 89968 62239 21052 7289 71335 45966 71340 5698 11029 72581 7866 93750 41568 72106 29746 74730 77309 12578 76578 67245 29517 14274 83220 35492 7401 93204 61846 43745 48669 13356 85583 44392 34301 83737 4258 32309 95989 10382 28036 53629 41113 67482 888 35441 95527 65116 11372 77397 35951 41923 75091 36969 21923 89751 92579 96942 91469 11212 73297 5989 37597 87030 75638 97730 22029 19855 96471 29990 64021 77767 86026 2525 83167 38219 59370 3493 53943 24124 55686 2189 87222 50962 3747 55117 2819 550 43030 97995 89964 79742 26864 69211 35655 99865 82275 38276 50601 36841 44317 98831 82738 28651 87710 39632 25918 3751 29615 68384 98494 19301 83035 1902 34490 40426 39895 8533 42972 62390 98126 46297 53582 98151 16475 50213 14921 58652 46841 28585 73178 24828 12121 3191 8993 51824 63325 66976 11125 51542 1918 44330 70054 81370 17865 83101 51425 71309 1764 81314 13211 64604 66455 50946 38690 91237 38131 74318 73211 52127 95594 34280 815 16817 11760 61749 6519 14109 57780 12323 41044 322 53695 10765 96701 27333 966 94494 70996 91428 51910 28233 40258 20453 47230 97180 14356 61135 17270 46948 43489 24591 87112 41072 85017 57266 80330 4301 76453 54752 59698 10998 68117 34079 53201 50764 78441 1987 82765 92291 74682 51031 44176 52267 59445 19936 67412 85097 1394 90583 36160 45031 27664 54400 61184 34047 6239 35908 5145 6581 92749 81300 8766 11669 36264 36801 32406 14239 74439 85449 90297 47910 62791 44579 96988 49923 46247 14680 76902 67664 88326 76598 15226 417 3019 7083 77593 93592 71606 50218 63694 7204 57708 69668 47062 31423 93236 94314 88930 64386 25745 49491 68127 19085 61937 60645 3485 64331 18703 84012 59867 69048 78515 32956 54540 12726 50026 60490 81418 14906 30235 97133 22278 35678 54394 2190 18657 15947 55558 94200 39904 38023 8939 46508 96733 19395 42455 42910 94799 97090 1762 74550 91604 91685 21526 31747 10811 81849 79333 16294 24053 37755 35817 67787 42553 59900 19620 13798 1382 95807 94291 26661 25088 4339 8547 97705 45507 25410 43950 4506 57823 56843 80552 47028 73950 13865 63833 56344 91652 91093 65012 15729 81891 90348 57947 81350 70411 25277 36319 64735 47231 9881 70801 47731 10621 5752 60605 67272 39112 24179 9290 91598 30422 88438 5475 27872 4165 95767 63090 7815 78058 97720 85658 28904 7341 75401 45239 94473 63031 97539 50704 90008 78621 46971 26879 80255 434 76021 71572 61283 64425 37647 46313 29652 14887 93781 54757 22744 45770 44270 15817 60295 6496 33400 72557 18861 84543 76894 52970 71166 80525 92751 99605 19556 4064 94587 26303 1235 63463 73373 54783 25734 57694 41025 8629 40888 78359 87634 96533 17521 20961 51771 94516 42925 90330 67809 49742 37951 86889 46832 61504 87092 83699 92590 46466 36532 32124 4342 19425 86829 88254 85271 10348 56234 77630 81353 13354 96326 37077 92782 48227 92193 41225 96573 93643 78624 41136 21699 96135 5410 50625 79029 20752 29576 28722 62380 11239 52232 44549 12928 30416 6590 391 56258 2529 67450 67097 16158 12862 27730 59301 69666 81141 14366 19595 69076 57430 11486 16765 46364 41968 4398 92252 39191 87843 63698 29268 42230 92519 90812 61882 78360 17037 50024 54054 52092 64914 24506 61900 79501 5635 77210 68490 36140 26498 7483 85509 86609 23107 47784 65244 84851 13592 25473 67842 23128 71099 69198 45848 19727 34470 80780 60199 34843 49130 262 40998 95904 36089 80425 46458 93083 89321 21636 56502 26785 57347 79171 55844 48995 194 2018 29280 55563 59786 58615 42983 82468 89657 20971 30540 48552 78849 87276 73408 47662 81467 92434 23307 90023 22276 54358 94631 41438 49551 27289 16098 61947 32778 82800 4274 74710 12412 77088 84495 20414 40963 18643 18901 41718 50355 53161 19459 24844 81487 46271 13116 8930 67455 82030 80262 79133 74865 59549 22202 33405 3905 9140 69956 1277 36150 230 43806 63315 75273 67293 99005 12817 3405 86899 15362 20094 12256 31396 71126 1471 8148 98629 80043 8754 12980 39466 31800 12737 75679 34314 8706 99893 18569 12395 62577 19851 45709 56880 94584 9500 16827 98432 9891 459 6009 32493 43718 5695 40412 5750 72838 20533 81596 26196 82829 58976 22147 15484 77589 87200 67395 91562 58285 75585 81307 23241 6261 66786 11225 49961 75548 12112 9787 93443 31836 32612 23061 22771 49970 22592 27770 52366 9397 41413 1376 53202 5919 91047 48254 33124 189 28555 63521 66612 49027 29252 71209 10473 97193 58417 67233 81356 42667 51144 31547 70933 2593 81145 70208 55051 91996 15088 75305 92015 6235 1487 97214 17096 57496 48113 44391 81249 43102 89078 67764 46274 43135 93554 47764 69636 42179 72775 65869 28096 59437 44187 10973 41293 19384 26358 47989 48357 93611 34837 19387 16181 31260 8872 43149 60783 1549 83962 23120 75180 80531 90007 55355 42723 73698 58342 35203 34748 50275 89559 24155 98138 3205 80719 1576 89152 99439 40623 17824 38326 86544 78658 98944 54564 1479 59645 25853 8333 29094 39791 44655 15468 84266 96388 47708 98084 32528 98340 4245 60631 26204 15420 3058 30421 93494 72090 8220 61074 71805 5445 67305 8080 55796 67424 93453 9400 96610 96604 97662 16871 80309 10060 76777 28703 99724 66446 11825 19873 40882 40687 37307 17476 18659 25924 76826 59071 20880 99171 67511 34458 36060 76057 51337 96149 67714 68668 37944 37920 51415 58402 24767 45345 82904 28901 30656 9235 91082 42269 18940 23153 98664 33508 95470 48177 1192 92060 80479 80810 60034 40303 39654 34935 4410 4906 73118 5103 55764 25439 42992 73925 99165 86665 77851 61555 87315 40255 1660 90174 44151 78297 58593 65561 26974 52064 73798 92544 84580 48726 33893 16483 43888 82603 16859 29550 12851 5932 94991 46378 29522 47054 70298 54654 59070 75310 92234 6936 93431 43442 1840 57624 19119 87759 68782 68449 86247 32015 70093 55112 7442 5425 48661 4523 79588 44694 35454 31182 85696 87919 48794 78583 85092 24770 10380 15865 29340 65413 60264 64700 99684 48104 43947 50079 39157 23317 93099 85831 85903 47362 57754 57139 50662 58656 24544 47337 43553 19543 8855 5385 11464 75143 93979 7787 37804 69797 7096 90202 9772 16634 2505 72688 28956 42646 2179 30149 92040 31850 20729 50005 14833 89599 67975 69723 12530 4640 52294 84754 40121 46199 89373 53118 80385 83188 96603 69841 56273 83753 68244 5713 90691 80331 49647 43900 48244 52671 24900 73107 97682 89074 51022 68658 66839 72069 4140 26505 25912 39600 17992 72715 48219 50409 75250 21870 28353 69627 69083 46316 42822 56097 4826 88981 54643 55160 39606 19764 90809 6214 50809 84599 3478 29379 63191 82878 93927 37767 18025 66407 42085 27368 3439 88337 85259 13 65359 20344 5831 44359 68002 73665 45127 12473 97672 33670 68628 41624 82257 6297 83314 34818 96607 78483 82662 98678 92988 22982 87032 36444 73414 5683 17676 96960 55731 39432 15693 86185 68443 85482 56766 75148 14869 78572 54968 30579 96155 98123 73986 93802 4079 83843 73006 49720 47413 53906 18767 65144 32200 57202 86969 17703 54745 80932 18803 50908 19244 49891 61230 75743 16771 69363 64696 97993 82515 85372 95840 56002 3701 24725 71178 2261 39321 89712 65801 81077 53010 96104 92675 69575 80904 17341 77128 60935 67328 74413 6726 4593 15975 73521 27061 18458 89643 45669 72190 32877 5233 95644 51845 8545 89478 97044 1261 13022 34693 2571 96431 62021 70976 56136 19235 84268 25306 53699 6204 75422 37950 26027 4422 93552 74850 51265 55684 74572 35629 89998 88252 43231 85323 85945 37075 6320 70673 10553 82358 93886 46682 1120 34425 72620 72800 84559 3960 40771 13005 94412 63298 30951 38497 8775 7427 68402 39769 95622 38337 39005 36772 59276 97878 50440 81575 25774 16481 1415 79107 86555 68472 84335 3674 16172 12353 19718 98250 82707 69673 68742 99530 12884 60009 69164 44843 4771 17082 74416 1232 68663 32692 77912 16741 82782 82064 25273 80840 33339 64362 72320 48979 85024 35048 20136 43702 41719 8136 38762 13543 75415 42784 28532 64133 59240 5807 23188 80395 44460 79721 95429 84398 10882 95827 39556 12591 86990 89894 69228 8082 58539 63225 63418 55434 53298 28285 27818 76847 42938 14920 84429 54918 64177 60191 24380 56070 95407 23770 62141 41362 64550 36233 80701 45269 41929 30684 10632 89346 29162 37927 25421 48884 41971 50202 57972 83165 52796 76841 17679 15770 38777 76831 26594 18324 93573 59743 12031 58065 66961 71203 92152 23021 6857 17990 41301 60530 24102 73400 93956 42043 24079 56715 31943 51057 81199 93898 94487 83055 86493 43447 47069 27522 11407 54455 5411 11135 82065 1021 95483 97743 40265 94397 13512 15156 87475 42516 1334 3322 4672 8381 90319 39370 41066 78825 20867 16187 52264 68709 23240 59065 61531 14017 29910 12340 88004 84061 66002 92507 64312 8933 54781 22051 23644 35206 12978 55293 53833 59181 70273 67524 51054 10803 27919 96105 1460 89329 74054 73112 46597 24535 46113 76014 86116 67551 93179 17810 45092 86809 1975 13528 45923 81189 76939 75221 9766 77415 33391 28971 88866 59835 15487 45014 17008 69940 33836 71363 45444 52591 34473 35267 40346 54681 32914 62799 60479 96637 59748 475 60294 85614 40617 5736 78427 26038 86093 40929 60681 56210 84175 23685 72338 44553 23686 72341 4953 63829 1089 67460 20183 39625 16212 61923 29642 51592 17866 92602 93627 48550 98214 24534 83458 66606 5841 95294 53896 18811 58614 23426 30771 29973 77796 71932 16894 19996 87227 93072 47012 67049 39050 45188 16702 16057 35247 2688 12957 64405 98884 16690 78614 62264 85139 70373 72301 49133 83044 78164 63986 91313 84719 36241 74320 67159 44120 92874 73757 42007 79784 66812 47619 79422 44514 54245 134 90582 23084 33775 72126 66 8583 66990 38579 65007 57279 4163 17198 11361 74868 47594 13676 72495 15517 42961 64900 35493 16820 38526 76441 26496 86180 49082 36800 1895 36918 97362 90527 24109 31854 92651 28910 51239 43784 75414 85148 75995 92686 49784 52742 94807 26281 70265 40232 82116 53869 3487 18558 37252 90309 50891 17656 10578 36588 10462 75554 42563 67936 52456 37143 54120 65297 50723 95173 82986 73217 88351 81496 76107 89785 32563 58470 94271 32207 77008 9535 48188 69581 6906 76986 24727 72188 48324 22500 91925 34611 18158 25371 74521 57790 95595 66790 96260 75476 13757 60389 95799 37508 82249 92495 14987 71475 58555 94971 11484 94509 21806 59658 99823 50503 99924 80239 31870 83584 68540 38787 49747 37763 34524 97753 32296 89394 29105 50878 66263 19381 64589 80710 59263 83115 62383 48482 498 5306 87823 9879 97960 94765 98164 83014 69684 64355 64985 16037 60257 78854 71989 10377 52169 73700 41620 84103 13143 92708 23498 43382 55171 32104 76390 97981 28453 36548 64990 48991 48103 32921 30909 47797 23341 21587 85984 92851 58713 72313 70547 38384 57543 6822 61771 80328 88661 15285 52626 49046 70268 62720 64823 34475 82694 48182 65164 65247 96572 91083 14050 68972 87610 96473 68688 93036 33032 87590 39128 91297 92212 31464 27843 53150 95311 27756 91514 50274 20557 73432 21211 49363 23059 81318 83118 70923 4176 26430 38037 99424 56005 1423 93148 58696 21296 98702 39436 52792 96425 99319 18649 76332 44065 68252 44321 27524 86301 17125 95689 3940 22213 17747 48970 16142 95833 28031 9189 32999 14799 5395 83243 66851 10016 41437 60279 39861 83038 18256 37051 48763 40394 7288 34813 53450 50940 73572 97235 63726 28687 31104 8014 64789 96088 85588 39800 22545 69321 94140 59594 10394 84684 94612 72851 3233 36774 47842 1778 89865 21784 1887 51808 26532 97866 91029 50573 85305 14336 27958 53318 90804 18946 22332 77460 47678 39704 99401 12733 87404 21259 1499 97106 50763 16681 51644 91609 86628 46701 51520 59795 22456 34790 42509 34232 11922 26836 15895 7754 32094 77699 56634 13030 12589 36010 60006 42150 49163 31674 71292 84618 34107 87313 85638 77287 77066 54958 46822 24152 57217 95323 72117 90436 9249 76610 95713 29238 57357 48463 39542 95763 90320 46162 39473 45514 10464 95220 49698 93205 60584 9088 65844 36283 16960 90133 54175 58533 2211 3119 89842 85477 33715 42574 28102 93694 96878 27610 1365 63475 67325 3357 72768 22215 8435 3321 45668 42782 40064 61905 87506 14905 7681 24612 76570 37513 97592 31062 16866 78639 46908 87045 31609 24032 44431 89215 17603 7208 2747 38044 68724 78309 86411 30953 86446 32463 26363 7504 61715 41522 63536 27499 20927 17966 9937 60284 41504 31504 89441 28216 6121 84826 59794 93490 74068 15577 82310 66009 97976 53640 89870 22322 79807 866 56228 27513 23101 73100 85735 63882 23864 67128 15228 80127 31890 94858 34324 89021 38007 79031 7695 70467 84330 95718 70241 88497 6643 6642 77850 36819 39786 10635 6476 4395 92761 97761 80821 20858 52389 83802 31265 54295 77992 5743 61118 99621 78236 55193 72673 94687 62797 94762 46895 55324 14369 48825 94782 66721 18577 14891 80978 83767 87769 49603 99650 51166 58142 20628 8489 68189 54823 15609 56365 64942 45406 1348 37155 62102 23623 7462 69018 37505 45782 96216 6939 89975 81084 19108 27549 19263 50405 18275 74070 49904 64955 29817 59783 32584 7678 71025 66494 29024 2020 32890 99274 97185 55958 2287 667 52915 37153 15416 44539 78257 26762 24288 15716 84092 49881 16729 82753 25525 30633 55917 79216 51454 32003 28135 59387 82433 34044 3931 55692 97204 83555 76927 53929 2123 61253 87892 53092 21994 31417 80853 98738 8949 76586 93047 97206 39007 39129 83838 3286 99768 61087 70681 35170 28990 13772 29210 32849 89312 17444 80003 39265 53099 5186 60418 72415 98597 28578 59265 90080 72133 60021 1932 75831 45032 19571 37725 21897 98829 18078 76394 43556 29218 24015 88871 17889 44842 83095 46248 62560 23388 63981 29794 51128 39493 52250 99590 55929 60746 43788 41021 6086 37427 65848 64538 53421 7501 31351 83264 83300 41710 91995 35691 14328 98572 95562 84723 73302 64899 17849 37366 1219 28807 21890 87518 38524 62500 77040 68051 29088 10590 60652 59821 99877 43621 26978 569 56093 95674 71165 82584 58681 61570 16001 65861 4023 83674 76316 56538 54179 25111 38745 12517 73868 37222 1318 34392 61083 26475 72996 54735 65129 20332 61212 43954 59770 16023 87690 15511 1645 14048 23251 86213 39455 48130 62002 71268 6565 13896 6206 3700 70677 17764 20193 33083 61388 65942 2083 32095 28456 12691 24194 44799 80039 94948 69974 30457 62705 90645 33263 84815 65827 56125 57604 57196 49149 31411 86973 3821 40082 45758 50616 44509 5511 72914 22685 39349 90389 79239 7662 41948 91889 83973 56312 59858 86119 81982 4201 29724 10910 91291 22263 13993 46303 66345 21401 73977 39488 45619 87062 90989 24765 77580 22304 84982 37594 38269 72144 70308 50023 39079 97132 77327 99612 78117 57657 22622 62911 7224 9262 70804 86931 6015 72060 19050 11011 92636 84614 62488 3703 78686 43538 23193 55150 3264 73946 63525 80238 4990 66939 9107 66277 80657 78268 55077 81627 36627 79508 2938 5986 95006 51777 87742 77476 20833 33058 27849 37131 88955 57228 7155 79212 70309 42788 25676 18277 83475 51209 29581 50262 32221 60756 79364 4662 86428 99697 39917 74157 93106 44051 22859 67647 66216 46718 71113 93854 54828 36521 13238 49421 39434 80027 39240 26680 44248 79937 36689 2283 38797 34576 82543 24201 94556 19667 31462 90498 31308 36265 52943 775 77188 9700 55673 71862 87150 41268 30352 95953 19019 28190 81888 75569 68404 13835 82555 19970 13960 17797 59548 96547 79178 31127 60905 63377 896 10296 26790 89031 30811 997 14138 75546 30714 70232 3774 58900 11069 19746 34614 77 27772 26810 47844 14171 75381 6421 20532 47618 84435 3165 21248 77743 27574 85297 99041 33077 2943 75378 62949 38298 93060 88065 94504 40099 13773 350 95742 54932 52251 16577 7596 61583 80402 27409 95214 31830 5448 19202 70144 4275 44021 72721 85689 16352 15126 52818 18461 62593 90612 77598 42205 99302 85836 95828 98076 79090 63483 84708 34336 16110 19832 33008 82049 57143 82020 96444 31399 56780 27326 47457 16074 35181 56328 31818 34178 88345 17666 48919 55486 18243 80946 37473 91302 59950 33578 33009 4794 86505 68368 89009 39876 87765 73717 32637 64278 56315 19361 51921 97606 1542 2929 83927 2964 52627 76697 4636 180 99104 21035 59153 96642 50724 4719 7435 11249 91150 49388 28223 83868 50318 18573 17867 25116 10350 51631 49930 63156 15167 69876 65602 66416 11579 88247 26272 4502 52300 5195 79661 98563 52975 4785 57123 37856 11343 60554 89575 27319 59908 6864 40777 55205 38177 92925 11258 4927 77689 72580 78963 54374 97020 29069 71778 43057 49339 75880 54665 1210 70367 40946 75409 21486 60781 18445 67480 98349 19107 76491 87532 80689 59350 3222 77145 78843 77204 51163 41246 89308 38389 11565 62024 77482 11025 39121 69158 92280 98256 29068 33572 6605 39154 98992 73825 31922 37633 85674 48836 82394 98150 85059 61815 87880 71535 79213 32243 19557 4367 52805 36156 70837 3671 49245 47860 44594 7245 5653 76065 19588 79500 15680 72656 37054 44986 60364 15828 63509 63647 38487 87568 25258 64849 24305 4815 72570 69162 78032 46431 13243 98821 27688 64821 94757 83408 58317 92222 44115 95770 55738 2065 11555 17614 17092 83672 23971 89402 20418 31234 36116 20677 47088 71235 57404 32188 14543 74365 79230 57476 36575 5466 80476 71995 58359 13964 84452 96145 27013 62420 79819 91154 75499 93497 94209 50320 16325 17152 1569 5152 13226 88482 79895 50491 67848 31994 38949 70680 76887 32134 272 48734 78783 87628 19327 16375 63619 68974 4344 35687 53073 53598 71373 51408 96043 39212 20071 66165 58288 23781 65230 31188 91931 49483 16485 29016 76903 49221 79092 47710 67826 5802 62662 49571 58059 97843 86699 93046 51334 99335 40181 11389 72023 92555 43958 28609 35697 59480 2125 70726 34210 55682 7047 87548 66067 49337 17218 57313 9579 5242 72502 27643 56535 63573 54138 9012 76121 80714 29972 43227 26021 35148 47034 98378 45392 52576 77221 99486 1686 98047 66205 66563 27995 91142 55187 78349 859 9047 50527 22908 81233 51292 21500 23952 4549 78646 78766 79705 34402 72622 69040 95418 98879 58325 15027 97577 25874 98527 61700 16403 59363 88990 39474 69034 2749 63444 97028 90057 83027 84554 95665 15674 31883 7248 9987 59642 18883 21023 77115 23131 1715 98988 78205 34167 75123 82341 58005 82861 14578 74447 99745 24796 34087 5392 40595 72958 29706 53853 89655 2095 92419 53611 61746 84610 23558 28249 82400 86869 72192 93837 59673 58930 31014 65763 27442 78580 62351 98966 67053 62005 8669 55586 28467 72122 46399 9728 47037 3084 13832 50780 78213 62773 46776 80862 47799 39785 94619 24248 37764 44949 53540 4263 57362 65058 69210 55415 55138 6060 86183 45154 22605 51435 68149 20762 5902 28290 52074 48053 41237 90580 83163 56664 73350 42087 72711 43042 33942 7126 55296 9717 51665 49218 26259 14510 82424 12905 81785 98775 56844 35866 30269 24808 13014 3274 46219 93946 8733 68086 2057 46758 8355 42520 57008 6188 21796 2097 36554 17269 72288 95569 1851 27327 92905 24198 60984 3834 89495 73875 23758 98285 94988 91666 62169 28806 79518 12660 95508 25309 40975 74059 23908 78536 90660 46768 40509 8901 47070 73773 65870 90103 89414 47560 33899 15498 98477 49395 7097 42326 6888 98226 35433 65646 5495 74329 78394 46368 98441 81887 42498 25223 69439 69241 40527 79785 95440 74789 87253 81748 54235 84927 27120 1518 5614 18306 47837 18015 80454 21953 74785 27341 83723 61530 62897 22375 13020 75921 1646 49485 4617 20658 77849 80506 30460 33863 28961 36705 58701 48283 51881 75601 36671 47700 16882 16625 17765 54615 40212 53076 97137 66439 35788 19052 20311 21996 83794 95636 83849 91548 24695 58702 67483 25240 70942 15806 53404 57650 95691 32582 10896 48781 11655 19393 51443 33302 85922 87180 99876 59058 56587 67439 52655 32484 77345 2567 46463 10723 90581 11630 76609 76745 56940 75991 30749 49686 28108 34385 98488 40737 48701 67044 37139 64841 51619 9934 19903 62216 95334 2314 28778 78571 85199 8978 17376 70691 47536 93563 10038 93377 97072 84021 84562 5694 97337 27569 34742 75968 70267 38533 61203 10845 24548 38751 45622 14862 19606 5267 17208 62040 66015 71071 44329 96455 99595 49476 62589 76204 58786 84703 4756 69953 66948 86467 87242 71857 34975 40721 97789 18912 70747 70881 12372 24874 33614 61038 23194 8642 40278 61044 41989 11651 84149 62349 39898 42832 55524 57940 19443 88759 2821 91114 50509 35814 42275 9664 82528 48385 55651 20390 45456 13056 23973 33519 74351 2643 85134 36536 64233 87169 7443 7912 36377 66001 34911 12114 83652 9871 81534 37111 36203 84842 19017 93798 98630 43584 38291 85889 97944 32343 66618 27485 3149 96986 43654 6276 28546 18509 13801 50251 22681 46459 62573 27469 99149 59550 26409 18819 83841 11134 42480 57015 71442 77807 67947 3594 67722 64871 48846 79347 39740 88290 96028 16816 51991 42623 65937 55088 35056 34656 81048 80733 18016 15208 27826 29129 10265 17463 15004 38078 88063 75648 31438 14375 88425 46243 94414 34773 26767 32594 68514 320 73972 78188 41875 68875 48904 3168 20156 25626 24683 84887 73287 93904 89750 69491 60345 60406 9474 55080 57609 5380 62114 66971 51478 40934 84114 27630 43008 63542 66278 39376 52674 31139 75860 84595 77566 1796 69874 20029 14622 61989 9726 82199 28959 25882 89535 44589 2441 22548 79454 57765 57187 15890 79322 78078 69597 53067 35713 39846 79238 36068 21107 95233 52243 5771 38609 56026 84897 22111 92737 25452 85726 93305 84977 50770 43255 26546 73337 78588 28790 56400 28535 39594 31202 78341 42641 48833 30131 41311 2696 39310 71147 13379 10069 48423 59806 93465 64183 67539 96163 68779 3015 84294 72296 97815 882 58445 69396 97563 6720 4703 42706 99785 48238 68448 57683 35749 26227 11659 65960 58018 67052 1118 47400 98171 13784 79999 77562 82323 6123 97948 34507 72481 7089 63968 98625 29925 45683 29618 27005 54611 53581 80856 49489 91713 73609 61632 1212 85009 19848 78869 63537 89230 56255 54962 81093 11718 17148 88050 13999 48704 84076 86109 22765 65621 78333 22920 30089 46038 66493 42113 27460 30418 95971 52772 10065 74242 86927 85371 63289 748 54195 61007 45176 97136 32234 29297 36877 52343 81572 53259 55272 98265 80789 58384 3967 60814 90443 20602 75619 24660 54457 59239 72617 85107 88358 34882 4094 1615 48170 98956 55854 49948 16416 46865 25794 74880 42491 12672 48766 20915 93830 47065 28525 70475 50169 88230 46633 94365 84162 64153 66871 72237 62989 34290 68045 72875 53433 64874 43313 62626 65179 37191 35022 95608 76019 89946 29775 62953 51397 292 39812 92825 89395 26360 91986 76536 40096 87755 81863 51078 88603 91280 81020 49876 61928 68482 92839 69544 65019 63973 40534 6632 20520 63640 7330 24623 92064 53978 42360 42423 9132 23196 55700 91097 25162 93045 69638 88186 56556 44656 69814 74898 21095 38849 2120 75773 53022 31451 42198 6656 29633 21597 38701 38105 3006 83419 74694 98754 55412 54204 22813 28925 9396 18144 89580 19728 72261 76303 93401 41721 35887 55219 86152 65473 43926 93491 16724 63948 98104 5840 69278 58133 76110 86472 18422 52115 36234 77050 57698 29699 15799 44428 646 73910 61182 62789 87945 56194 66238 48564 89314 98844 90339 68452 96386 50186 60373 91967 7320 39826 31629 27273 71449 46192 22669 40747 78903 55595 96297 1687 45001 60089 78066 37817 69143 52830 35674 77075 10378 76308 81117 23244 41116 74990 3704 29375 99608 28874 43614 22825 87992 78380 37570 33999 29184 35002 86018 59468 75706 44061 31989 31240 52461 17657 40456 64222 54288 63047 4197 64750 32550 13572 46337 5597 5702 22748 95736 93107 44631 40903 23882 32644 81550 19371 35077 10826 93162 54790 12488 26125 21794 46738 84342 74035 28654 2862 70201 79252 30204 42120 63850 47626 76090 97589 38612 62798 35576 96658 21705 40380 98051 20896 21789 41711 15373 52689 58799 64618 28825 64058 43514 24215 8760 68525 64684 18501 64844 16122 45458 49440 67668 54209 40295 53080 30779 20348 1777 88261 2955 32684 51889 59977 56692 84546 17361 67080 47532 55381 63761 55617 27435 80233 43162 11384 67812 63851 7670 25118 54938 25574 65489 34729 58887 96664 54841 39091 53757 2013 35585 46075 32010 72923 86149 55220 77505 88914 8655 51915 28072 9182 50376 87446 63551 33047 65577 78682 99979 12810 74631 1808 7995 13276 95048 86708 56193 97635 4609 30344 56009 50380 47210 33701 25042 15449 67792 24671 82581 67747 45115 44197 52372 84113 12987 85919 19383 48235 50363 5057 44767 86520 75599 8496 84159 99349 26573 40783 394 965 90796 16418 18099 48472 4599 85963 45652 3869 92396 76547 48335 19827 23556 18541 4946 48224 75588 77873 27729 87984 42194 63927 81089 64641 79970 20673 98991 59033 94517 20897 20516 50651 72094 30731 19036 83221 62480 83998 84603 52415 18231 31317 81024 19269 52219 26545 49612 99066 40301 39189 672 99743 43188 38322 77663 66295 47951 91611 28582 67231 35650 45508 72908 5415 66525 54527 28268 89881 94176 13921 76116 75140 11776 96856 47971 11091 53207 44492 67253 79105 4568 37063 61673 61202 51295 73860 31256 92931 42730 88164 29978 68006 58708 99708 4196 52211 80224 76155 68957 8418 92449 20491 14988 90475 87867 90188 93714 16749 97531 34780 16751 68309 65062 81944 24317 47404 43805 59475 19209 87317 62217 82459 39249 76492 47044 14256 77682 36981 14961 33929 21643 22949 18654 83768 91583 57535 85558 60684 15476 31119 73778 33299 72428 92485 82462 5903 9641 46249 17994 84947 96953 37806 26840 99943 35615 91327 98122 39896 19872 1729 41870 98683 46540 14433 92498 84802 30300 46628 22806 22733 4963 44464 98669 83228 80450 43599 54018 1103 79782 9793 27777 7115 76320 57464 72349 16563 83664 24699 15214 32098 42741 34085 78693 19675 10725 13289 18096 30340 82032 10947 93318 83715 49492 81862 46131 63477 51046 13149 85763 36020 67194 59974 24051 30491 94108 94001 96697 55037 11976 58532 69122 13213 18944 42590 56239 59952 69513 58462 99974 43311 76199 95648 87764 255 36457 72960 64050 6434 32520 8343 43392 28261 64012 95232 10346 58714 89642 79828 42917 8552 76530 26395 82223 75429 82502 2621 41815 28152 59722 57974 99996 23691 99253 3713 37137 61569 81059 77792 50 91870 41808 65227 96284 94569 47127 73147 32835 75669 21797 28531 80852 57096 62031 48114 71631 76717 14785 27449 81719 89277 1950 39491 95660 25109 52753 98260 25408 61615 12204 31698 68982 68961 83477 13938 97155 71423 1864 89001 70472 18710 15495 38195 7768 21895 56275 97236 16717 91658 11864 16077 83745 18003 94226 60689 95291 86509 5682 14235 41095 61060 25725 48457 42334 98701 81228 70372 22423 16284 17900 4296 30274 50646 33935 85208 448 72761 22002 42724 4753 70739 79844 53854 43219 68789 26910 87067 95661 6990 7746 91040 35680 7748 31456 45628 47762 72445 32191 50151 77070 82550 88271 17535 76589 94257 17633 63250 95410 18967 72867 75632 93341 72397 93115 58660 65761 92876 61345 19672 45744 12077 91447 25659 47744 19638 35223 4205 67172 50639 25480 74669 29111 5061 51586 53049 86501 83057 33580 13903 64856 1259 95465 35741 18850 6789 11459 25623 5842 39884 80671 41410 79115 7577 6891 93681 12860 95130 98413 12496 85011 12400 54949 35032 28324 72984 36330 43782 35863 64808 71652 13041 10269 55244 26373 29779 31117 11889 68595 75007 71352 2266 98116 51392 72534 27930 68322 36442 26713 23525 97005 64978 60691 43686 17870 81109 64232 77203 98794 19002 64626 9783 82131 23127 71510 31645 42791 92270 66189 4948 99499 76833 65162 37097 76933 68242 59757 87645 93186 93664 71012 88402 94098 88007 17621 69128 11089 71273 20668 92219 66765 9906 45915 14272 18410 62995 49596 81464 68530 66254 82926 30414 66167 98029 52430 18168 53655 25066 9741 14711 50678 81712 72381 54135 44584 23961 91873 42550 38350 49938 99948 82098 6446 84072 30892 50786 8313 50134 63130 53662 81018 39156 18836 67177 33667 44649 70988 79446 89879 97654 24138 26776 89503 6068 83995 129 93902 35086 23453 32567 15728 77340 58557 46070 37403 24485 27115 77191 52416 69005 78403 31194 6128 27390 48005 72668 7690 84497 14871 53079 27697 4720 47827 65804 48700 73219 34549 83922 95115 44872 99453 31983 75986 73823 16854 17518 73765 79799 79809 93644 28388 34555 19830 5540 2389 82563 72573 31407 94032 73789 97615 54296 52345 94345 18119 93606 732 98476 92153 92814 18440 4384 65437 98318 23370 29984 9054 85307 3206 47061 84737 95838 88895 91917 11912 68876 27473 44736 67896 37378 92847 41354 1025 71528 81379 24081 11177 47251 97710 4132 75428 22181 15721 5014 15644 72695 29903 50160 94894 14078 90765 60201 44226 75084 70944 71259 67219 94235 60289 47697 19544 86767 26178 4867 40480 17513 56983 45411 91126 24789 95937 86837 56805 2467 85473 58020 80737 27545 84155 2270 80804 63564 57976 42688 1658 11956 30589 9988 8945 68219 82184 62162 47680 48925 56285 97963 6003 52526 52338 33495 47250 41780 53029 87247 40078 98636 33074 47701 73740 41209 82379 64102 136 67489 97383 30527 66782 72701 47293 11233 90095 93062 80746 26850 61242 91730 77072 57511 26865 45936 13948 75910 623 16322 63487 25901 80592 44644 78782 35406 44668 66920 12917 19912 14972 12752 25695 71066 62281 76222 69577 35316 11974 96096 3856 35096 76029 67330 33442 68760 58149 48791 56886 35360 78227 39398 51589 47422 42739 9056 72540 85008 96399 17785 25398 80651 93804 37148 49873 11584 26491 45449 62597 34352 73230 70738 40227 86051 27808 59299 70045 52215 58910 42090 51053 92980 2649 38217 88805 98306 72813 12342 38089 73032 35084 73849 2879 99038 90333 42527 25951 65888 65248 43001 69661 75390 43314 80424 43372 35661 74182 65976 81790 38560 93915 91482 87025 80937 16516 66055 30120 88841 68902 92999 98885 22345 72370 79998 51323 50549 59769 34841 25663 94641 69908 73701 42530 20152 15862 67688 58559 33963 17944 21154 55969 50953 45918 33735 54082 19081 60416 54428 65410 36894 45064 28753 58041 82635 78669 46222 1679 66082 59123 60573 35965 15774 6761 5645 69827 33449 79901 7917 80551 50290 88278 7004 66099 27068 44001 86202 76217 51427 35923 85364 89231 28871 27982 18672 87288 59918 9379 86884 12967 20820 67589 62143 18511 69676 61111 38937 7654 74117 77430 22786 88714 57200 61371 36982 29661 20247 11478 42653 83403 18083 56543 288 34858 56427 87607 55634 66645 85020 96930 59516 50726 56658 77477 80308 74954 81727 69339 14263 70590 32102 28105 13506 66379 53954 78775 64112 12559 79142 94009 11553 50011 23451 8660 44756 92450 85337 28552 94273 95314 46888 96220 93506 91794 66944 37181 88348 7539 14287 92554 7733 72052 69493 99423 92777 93855 77146 80176 93768 37012 59696 99480 94615 30869 74250 73378 23280 28569 23958 9635 24082 21648 621 97225 78734 30177 49374 80902 52640 45062 94659 29861 95367 52026 57002 26124 68553 44215 12655 99204 75373 58909 31685 66467 80484 70196 78385 60734 18012 86900 79630 16444 47385 23712 57035 46479 6597 82067 67218 11026 75675 78388 98232 2904 97876 5912 75334 57105 69454 90716 96274 6410 76188 99068 51036 29026 22923 42235 98969 49960 82216 91816 5686 25167 80728 330 22569 80966 64995 74323 12084 24402 69287 69913 63926 76007 49048 54000 45306 10608 3453 31973 60304 91545 4626 63254 47507 20640 72010 3087 8667 22609 19899 66225 43322 99238 17179 10661 30395 57809 98057 77686 44822 79760 60118 58456 3946 17520 5753 95286 73964 39152 38901 84086 94181 71541 70751 40514 34270 70368 70591 29416 61344 15675 25835 31038 22095 38268 4874 54607 97093 44411 37878 4695 35524 8023 40568 25750 39271 2890 57607 68798 27137 13707 2373 12805 99813 77082 45493 51830 43761 48568 42082 63078 41393 86794 37943 58579 52560 75818 85781 7255 76343 43771 94651 51554 26253 79280 2196 34062 166 51470 65934 14606 60577 51624 36996 78093 93417 28431 29784 3784 49236 87621 56034 53095 80010 45121 54899 99043 68137 63708 72163 18846 59279 78497 94940 66930 41589 55759 50683 90177 58104 10275 89587 832 37998 88751 9484 29381 41703 9278 55870 92881 9351 18198 38584 92188 53541 57530 37320 24656 95818 28272 81280 46439 48367 61574 50907 98604 82308 30308 18106 96085 45004 88770 94358 73644 31701 88173 50205 36991 51698 57134 80917 53423 44174 46715 10659 64556 33016 70941 68563 36426 96443 41516 54359 23036 98571 21668 28100 11068 73920 3686 40052 77539 8447 32766 14682 31249 83109 83703 81965 80307 84094 59615 52038 60794 19572 3050 19206 3292 99931 78495 6917 84044 82773 26012 84775 76804 15232 99151 56836 31343 38972 70625 63774 49414 90483 71848 59013 68034 41329 46028 18404 93589 79383 85613 92465 9657 20366 12504 49232 86463 27994 11285 68581 71224 52639 53849 68011 59312 40304 37737 56086 72245 69545 25513 30690 26583 83048 89961 38725 38281 67621 72250 72812 95789 15486 42376 93464 48980 50259 66234 85670 6168 22036 16350 57093 66129 53960 67377 84298 46308 38587 36308 18981 79554 53239 87701 33344 52061 45621 6084 30640 71668 51308 80658 89677 87950 77617 11661 10160 48572 66883 76765 32489 36327 24481 29547 77512 30391 16309 68433 79882 55257 2864 54436 90695 82936 93171 91308 82679 12791 8266 83547 64638 96235 28087 75678 22876 90489 55123 29196 74934 7016 49908 53100 50750 18357 76473 93203 43591 95803 27865 66964 82207 1215 20294 74069 25031 38358 14324 65094 28948 22852 53970 15561 78529 76253 21676 95098 27259 4335 74463 30777 75347 49688 70222 13406 99485 46023 50425 30246 70048 50868 31273 99643 53113 63331 49200 85332 16700 57171 98249 87543 88904 65482 25845 41011 66197 22515 6076 87733 39621 92736 24621 99082 22805 30810 81197 31739 1665 43061 66397 52730 79131 50700 8495 55128 75101 93712 36285 21427 50835 56151 42877 70082 28010 97063 70415 93666 25096 95150 86839 7275 34931 68712 65276 4004 30970 51471 27728 4465 67523 13299 76056 87562 76616 80401 4420 44262 3551 8021 43293 38002 12010 38124 76205 70295 84702 74435 80581 19986 29085 68758 51174 20549 70261 92541 98602 49620 23122 99868 21114 53995 76926 53802 61339 78413 46450 86197 27019 69708 69261 57303 34073 69127 30104 77209 86977 51074 70920 62631 76947 9795 82447 57009 75181 9667 77251 44775 84716 41526 91168 70019 14740 6353 61387 36274 5171 89690 52271 78662 58756 91176 57042 85942 34337 35805 29342 90935 97329 2409 85537 86061 12617 61264 70780 35600 22222 56575 69741 25747 84743 66951 66510 37398 24025 44379 22583 76960 40178 96380 22047 70044 74638 39640 95038 24538 15629 23050 45426 10512 97686 23169 76082 54257 76483 94014 40539 29710 5917 10387 26151 96586 50975 72347 35776 97559 85578 94368 25876 91248 43819 75058 72028 50273 36741 49494 48493 83529 81043 98081 30473 84900 44723 62666 55492 31913 86649 67507 18366 31121 67051 26268 85849 36732 88771 76165 53726 31619 31112 35580 24214 74326 79025 4317 80950 23951 5010 32152 46785 68211 91650 45015 15791 83231 38985 67487 89913 22512 18101 69245 17003 84444 21033 34146 71585 54756 75820 23939 90268 56324 87075 3398 6518 43830 71741 33266 639 26152 27204 49754 25083 48262 96179 26908 28311 71960 70864 99346 77277 9231 13825 61081 71522 18634 85686 25782 46783 32892 30145 71899 98760 53498 50181 99176 28524 59934 80311 37144 70199 2589 6674 64758 69489 43844 99534 30974 58898 30786 85617 80916 54514 48040 67542 25307 69559 95103 54684 78726 52086 30329 62564 59310 19559 83256 42976 73563 97259 54717 33676 36631 22780 72365 7295 6427 76036 3749 29172 36266 30281 15243 56197 85400 93930 42558 14704 76149 85213 73965 47397 48526 222 8809 13830 99646 28628 99613 61394 19845 79548 98315 25908 65515 93739 84622 31304 45333 20061 41358 578 81274 69184 69234 30405 8900 98075 38293 92023 74410 93033 30103 16065 73149 26194 71708 53910 20402 79686 73958 48857 83268 98399 16748 42587 54982 16592 87536 34233 41258 80895 18370 53180 88706 79156 55729 74922 1681 17739 83081 19333 33472 18991 95711 43240 87962 12468 30857 91769 6418 68818 42981 84412 69688 57473 54888 19709 81978 85470 79751 16160 53760 38028 76528 35942 16227 99429 47319 89406 5633 31992 34080 2866 8226 52603 9009 8445 37156 43714 89724 60515 3963 29974 94778 70708 13393 11522 14843 44025 53632 2229 74498 75223 57184 81478 82091 78326 47483 83789 75894 41238 12136 59742 41464 2009 17025 95336 39515 1107 61828 25057 12527 25300 78377 18742 58800 15638 29964 88926 65075 68621 7797 45195 89522 53942 20572 5288 67847 49804 96804 95478 328 77971 28716 70572 97147 21010 18598 84883 55913 47491 81874 25495 18268 85493 36661 30534 26499 59819 28201 74486 33678 54434 50348 68772 41590 55024 96051 7342 30470 76805 49125 77880 5244 7667 57750 70576 1813 35475 17065 90037 47838 70831 96024 41950 67327 49334 5487 15499 99256 79652 64028 85194 15409 77174 94277 31687 62343 70374 51858 88550 71865 61609 87711 97640 85040 18272 89920 99528 7527 68422 38939 6079 43452 67601 34223 56944 31472 1680 86929 80165 86064 64452 93255 3097 99276 68988 172 36402 5400 50206 47685 20912 66059 11994 24667 94292 79210 26851 35983 67977 28615 97953 4134 6376 48252 1257 95690 78041 51940 28932 2243 14008 83759 1178 22132 38659 45760 9292 79972 82910 25 52967 67236 7038 20202 45438 75133 978 82240 84441 43518 68233 77825 25916 6620 97411 65984 36213 14077 84641 95755 80063 85212 94767 97211 20895 70488 79172 31426 703 54164 27283 58795 170 56970 57761 42602 57255 82364 94500 82142 33896 49919 76046 5981 67789 19251 58275 57000 72826 90520 67275 22644 60368 55964 78159 27852 52854 21854 1903 88476 545 47174 1254 96728 7520 71907 98731 61384 89481 53152 71820 96556 63241 50920 83047 31628 2709 40199 71750 87990 89145 70559 75920 67260 18593 99441 14459 63709 56639 46689 57079 19141 83572 18718 23512 69707 31636 46874 28579 94462 48456 37966 56993 20710 82124 83923 65308 71280 8121 2983 29749 79975 65998 90882 48574 88903 56278 26200 27581 65953 26524 38630 3383 22170 74004 42604 74921 38311 97646 60206 19751 78632 42800 37394 65023 2856 76210 15849 93849 94228 54377 1 42284 14270 51012 8133 17445 12322 40685 99301 96476 59924 71807 5911 82607 92871 82356 12596 84041 87175 79526 13199 23376 97464 74894 86267 10824 71697 13727 51519 84835 55648 55217 42568 58994 27536 95645 17594 26256 21709 24684 23164 73055 16312 31795 51351 78873 99339 3169 51664 89742 17374 65655 48153 40653 72959 6429 98130 12896 26768 1779 4375 89188 8487 58941 63666 60083 74956 90089 65033 6342 91012 14613 66996 88042 74076 56150 50212 89459 72814 32458 39529 97604 8990 49856 23243 78391 16976 13256 29830 7513 36396 26512 91191 44286 10075 87256 62954 13444 84424 56957 67418 83975 26144 23523 95533 42000 28841 50913 22562 83891 71158 85937 53848 53702 47625 8708 37328 20604 55824 26060 11315 55781 31503 39770 33856 54714 86148 41704 88702 81751 39267 9419 81820 31649 85286 290 37043 78933 7026 57820 79982 66784 68444 72089 7610 11378 85654 35575 5382 48288 30410 9246 10023 38206 85302 22680 30073 54309 1648 395 47009 52173 92164 6973 44916 28495 33981 32746 71277 47757 86304 82978 24893 65319 24033 98740 85570 61898 15734 1053 23463 18877 53245 47595 2783 28297 60346 3336 12948 66845 20630 91920 91008 60981 69233 34676 79362 1117 72389 15438 96415 41898 26967 27866 432 55003 3708 11247 79442 59865 18617 82605 68747 67413 27968 21437 55323 47772 41980 44679 63770 20081 85619 78263 76803 48561 37079 61906 19997 16766 10007 62453 5820 84295 57885 13374 44929 37593 61016 96596 70439 58989 73504 11049 65078 79662 60501 65988 61143 32686 48533 30190 60575 6768 71101 98030 67979 15125 84460 9359 3105 28017 70318 92923 17271 78238 83334 38740 52100 94024 19755 28113 18996 83375 85258 36988 37792 76443 42693 37541 94460 50584 92716 97257 53282 64271 92084 8895 78562 68377 32825 31710 64992 14090 96589 64150 24240 989 89463 28972 26819 44281 554 15906 68832 14102 40700 3251 24259 35024 13965 63683 74802 73873 1097 7252 52752 78723 39270 37902 85336 90506 7012 25535 62968 71254 94010 71704 93269 53362 22440 54466 45985 20436 23972 73332 41499 49990 83774 19622 38208 87571 49629 34665 98596 91377 15260 86595 64238 33952 96256 23698 2363 40861 23517 34105 79155 1302 75827 47649 2960 63633 14176 85873 83487 4661 77947 97390 32367 24817 53765 25830 97438 24982 16434 36054 9003 98878 9178 8654 95907 27394 41746 23752 82817 63122 89465 71859 29459 53963 70136 40114 72805 52449 27883 89534 61220 47474 38528 18425 82597 25786 68319 20170 14019 10298 21572 19445 15007 55944 59421 50354 83261 31207 57437 74202 74875 84561 81861 76456 55843 79950 12668 57904 92146 74706 95893 65222 46620 4031 61280 2343 55707 79048 86681 13809 23778 19087 88143 807 56777 23795 36952 18746 84498 79108 24896 58653 98446 4731 49075 20415 24355 59571 37613 3734 72797 92878 87322 21970 27414 26102 43644 49436 33556 53283 92946 82066 79653 14631 65938 12933 21092 14312 34792 32953 57325 3351 56808 85944 56223 30222 35156 95596 29810 5935 94803 45838 12469 37698 75229 82750 69423 58480 60497 22174 62832 90638 43074 21131 86913 52207 7272 32585 94189 45391 24385 71620 36040 69620 2107 58136 41348 16505 17408 60673 35068 37731 61053 86121 80495 16652 99999 99997 99994 99993 99991 99987 99985 99983 99982 99981 99978 99977 99975 99970 99968 99967 99966 99965 99964 99963 99962 99960 99959 99958 99955 99954 99953 99952 99951 99947 99946 99945 99944 99942 99940 99939 99938 99936 99935 99933 99932 99930 99929 99928 99927 99923 99922 99921 99919 99917 99915 99914 99912 99910 99909 99908 99907 99906 99905 99903 99902 99901 99898 99897 99895 99894 99892 99891 99890 99889 99888 99887 99886 99884 99883 99881 99880 99879 99878 99875 99874 99873 99870 99867 99866 99861 99858 99857 99856 99855 99854 99852 99851 99850 99849 99848 99846 99845 99844 99843 99842 99841 99840 99837 99836 99833 99832 99831 99830 99829 99827 99824 99822 99821 99820 99819 99818 99817 99816 99815 99814 99812 99811 99810 99809 99807 99806 99805 99804 99800 99798 99797 99796 99794 99789 99786 99784 99783 99780 99779 99778 99777 99776 99775 99774 99771 99770 99769 99767 99766 99765 99764 99763 99762 99761 99760 99759 99758 99757 99754 99753 99751 99750 99749 99748 99747 99746 99744 99742 99741 99740 99739 99738 99737 99736 99734 99733 99730 99729 99728 99726 99725 99722 99721 99720 99719 99718 99717 99716 99715 99712 99711 99709 99707 99706 99705 99703 99702 99701 99700 99699 99698 99696 99695 99694 99692 99691 99690 99689 99688 99687 99686 99685 99683 99681 99680 99679 99678 99677 99674 99673 99672 99671 99670 99669 99668 99667 99663 99661 99660 99659 99657 99656 99655 99653 99652 99651 99649 99647 99645 99644 99641 99640 99639 99638 99637 99636 99635 99633 99632 99631 99630 99627 99626 99624 99622 99620 99619 99618 99617 99614 99611 99610 99606 99604 99603 99600 99599 99598 99597 99596 99593 99592 99586 99585 99584 99583 99582 99581 99580 99577 99576 99574 99573 99572 99571 99569 99567 99566 99565 99564 99562 99560 99559 99558 99557 99555 99553 99552 99549 99548 99547 99546 99545 99544 99542 99541 99540 99539 99538 99537 99535 99532 99531 99529 99527 99525 99524 99523 99520 99519 99518 99517 99516 99514 99513 99512 99510 99509 99507 99506 99505 99504 99503 99501 99500 99498 99497 99496 99495 99494 99493 99491 99490 99489 99488 99487 99481 99479 99478 99477 99476 99473 99472 99471 99470 99469 99468 99467 99466 99465 99463 99461 99459 99458 99457 99455 99454 99452 99451 99449 99448 99447 99446 99445 99444 99443 99442 99440 99438 99435 99433 99430 99428 99427 99425 99420 99419 99418 99417 99416 99415 99414 99412 99411 99410 99409 99408 99407 99406 99405 99402 99400 99399 99397 99395 99394 99392 99391 99390 99388 99385 99384 99383 99381 99379 99378 99377 99375 99374 99373 99371 99369 99368 99367 99363 99362 99360 99359 99358 99357 99355 99354 99352 99350 99348 99347 99345 99344 99342 99341 99340 99338 99337 99336 99333 99332 99331 99330 99327 99326 99325 99324 99323 99322 99321 99318 99317 99316 99314 99313 99312 99311 99310 99309 99308 99307 99306 99305 99300 99298 99294 99293 99291 99288 99285 99284 99283 99282 99280 99279 99278 99272 99271 99270 99269 99268 99267 99266 99265 99264 99262 99261 99258 99257 99255 99254 99249 99248 99246 99244 99243 99241 99237 99236 99234 99231 99230 99229 99228 99226 99225 99224 99222 99221 99220 99219 99218 99217 99216 99215 99214 99213 99210 99209 99208 99206 99203 99202 99201 99199 99198 99196 99195 99194 99193 99190 99188 99187 99186 99185 99184 99183 99182 99181 99180 99179 99178 99175 99174 99173 99172 99170 99168 99167 99166 99163 99162 99161 99159 99158 99157 99154 99153 99152 99150 99148 99147 99146 99145 99144 99143 99141 99140 99139 99138 99137 99136 99135 99134 99133 99132 99131 99130 99129 99128 99127 99126 99125 99124 99123 99120 99119 99118 99117 99115 99114 99113 99112 99110 99109 99108 99107 99106 99105 99103 99101 99100 99099 99097 99096 99095 99094 99093 99090 99089 99087 99086 99085 99084 99083 99080 99078 99077 99076 99075 99072 99069 99067 99065 99064 99063 99062 99061 99060 99059 99058 99057 99056 99055 99054 99052 99051 99050 99049 99048 99046 99045 99042 99040 99039 99037 99035 99033 99032 99031 99029 99028 99026 99025 99024 99023 99021 99020 99019 99016 99014 99013 99012 99010 99009 99007 99006 99004 99003 99001 99000 98996 98995 98994 98993 98990 98989 98985 98984 98983 98981 98980 98979 98978 98976 98973 98971 98970 98967 98965 98963 98961 98960 98959 98958 98957 98955 98954 98953 98952 98951 98950 98948 98947 98945 98943 98941 98939 98938 98936 98935 98934 98933 98931 98930 98929 98928 98927 98926 98925 98923 98922 98921 98920 98919 98918 98917 98916 98915 98912 98907 98904 98903 98902 98900 98899 98898 98897 98893 98892 98891 98890 98889 98888 98886 98882 98880 98877 98876 98875 98872 98870 98866 98863 98862 98860 98859 98858 98857 98855 98852 98849 98848 98847 98846 98843 98841 98840 98839 98837 98836 98835 98834 98833 98832 98828 98825 98823 98822 98820 98818 98816 98814 98812 98811 98810 98809 98808 98807 98804 98802 98801 98798 98797 98796 98793 98792 98790 98788 98787 98786 98784 98783 98782 98780 98778 98777 98774 98772 98770 98768 98767 98766 98765 98763 98762 98761 98759 98758 98755 98752 98751 98749 98746 98745 98742 98739 98737 98736 98734 98733 98729 98728 98727 98726 98725 98724 98723 98722 98721 98720 98719 98718 98717 98716 98715 98714 98713 98710 98709 98707 98705 98704 98703 98699 98698 98696 98694 98693 98692 98691 98690 98688 98686 98685 98682 98681 98679 98676 98675 98673 98672 98671 98670 98668 98667 98666 98665 98663 98662 98660 98656 98655 98654 98653 98651 98648 98647 98645 98644 98643 98642 98641 98640 98637 98635 98634 98631 98627 98626 98623 98622 98620 98619 98618 98615 98614 98613 98612 98611 98610 98609 98608 98606 98603 98600 98599 98598 98595 98594 98593 98592 98591 98590 98589 98588 98585 98584 98583 98580 98579 98577 98576 98575 98574 98573 98570 98565 98564 98562 98560 98559 98558 98557 98556 98554 98553 98551 98550 98549 98548 98547 98546 98545 98544 98543 98541 98540 98538 98536 98535 98534 98533 98532 98531 98529 98524 98523 98522 98521 98520 98517 98515 98513 98509 98508 98507 98505 98504 98503 98502 98501 98499 98497 98496 98491 98490 98489 98485 98484 98482 98481 98480 98475 98472 98471 98470 98469 98468 98466 98464 98463 98461 98457 98456 98454 98452 98451 98450 98448 98447 98445 98444 98443 98438 98437 98435 98434 98433 98431 98430 98429 98428 98427 98425 98424 98423 98421 98420 98419 98418 98417 98416 98415 98414 98412 98411 98410 98409 98407 98406 98405 98404 98403 98402 98400 98398 98396 98395 98394 98393 98392 98391 98390 98389 98388 98386 98384 98380 98377 98375 98374 98372 98371 98370 98369 98368 98367 98366 98365 98362 98360 98358 98357 98355 98354 98353 98352 98351 98348 98347 98346 98342 98341 98339 98338 98337 98336 98335 98334 98333 98332 98331 98330 98329 98327 98326 98324 98323 98322 98321 98320 98319 98317 98316 98314 98313 98312 98310 98309 98308 98307 98305 98304 98303 98302 98301 98298 98297 98296 98295 98294 98293 98291 98290 98289 98287 98283 98282 98281 98280 98278 98276 98275 98274 98273 98272 98271 98269 98267 98266 98261 98259 98258 98255 98254 98253 98252 98251 98248 98247 98246 98244 98241 98240 98239 98238 98236 98233 98231 98230 98229 98228 98227 98225 98223 98222 98221 98219 98218 98217 98216 98213 98211 98209 98208 98206 98205 98204 98202 98201 98200 98199 98198 98196 98195 98194 98192 98191 98190 98188 98187 98186 98185 98184 98182 98180 98178 98177 98174 98173 98168 98167 98166 98163 98160 98159 98158 98157 98155 98153 98149 98148 98147 98146 98145 98143 98141 98139 98137 98135 98134 98133 98131 98128 98125 98124 98121 98120 98114 98113 98112 98111 98110 98108 98106 98105 98102 98101 98100 98099 98098 98097 98096 98095 98094 98093 98092 98089 98088 98085 98080 98079 98077 98074 98073 98072 98071 98070 98069 98068 98067 98066 98064 98063 98062 98061 98059 98055 98054 98053 98049 98048 98046 98045 98043 98041 98040 98039 98038 98036 98027 98026 98025 98024 98023 98022 98021 98019 98017 98016 98011 98010 98009 98008 98006 98005 98004 98003 98002 98001 98000 97999 97998 97996 97994 97992 97991 97990 97988 97986 97985 97984 97979 97977 97974 97973 97971 97969 97967 97966 97965 97964 97962 97961 97958 97957 97955 97954 97950 97947 97946 97945 97942 97941 97940 97937 97936 97935 97934 97933 97932 97931 97930 97929 97926 97925 97924 97921 97920 97918 97916 97914 97913 97909 97906 97905 97904 97903 97902 97900 97898 97896 97895 97894 97893 97892 97890 97889 97888 97887 97886 97885 97882 97881 97879 97877 97875 97874 97873 97872 97871 97870 97867 97865 97862 97861 97860 97859 97857 97856 97855 97854 97853 97852 97851 97850 97849 97848 97847 97846 97845 97844 97841 97840 97837 97836 97835 97834 97833 97831 97829 97828 97827 97825 97824 97819 97818 97816 97814 97813 97811 97807 97806 97805 97804 97803 97802 97801 97800 97799 97798 97797 97796 97795 97794 97793 97792 97791 97788 97787 97785 97783 97782 97780 97779 97778 97777 97776 97775 97773 97771 97770 97768 97767 97766 97765 97764 97763 97759 97757 97754 97752 97751 97750 97749 97747 97746 97745 97744 97742 97741 97740 97739 97738 97737 97736 97735 97733 97732 97731 97727 97726 97725 97724 97721 97719 97716 97715 97714 97713 97712 97709 97708 97707 97703 97702 97701 97700 97699 97697 97696 97695 97694 97693 97692 97691 97690 97687 97685 97684 97683 97681 97680 97679 97678 97677 97676 97675 97674 97673 97671 97669 97668 97667 97666 97665 97663 97661 97660 97659 97658 97657 97656 97655 97653 97652 97651 97650 97649 97648 97647 97645 97644 97643 97642 97641 97639 97638 97637 97636 97634 97633 97632 97630 97629 97628 97627 97626 97625 97624 97623 97622 97621 97620 97619 97618 97617 97614 97613 97612 97611 97610 97609 97608 97607 97605 97603 97600 97598 97597 97595 97594 97593 97591 97590 97588 97586 97585 97584 97583 97581 97580 97578 97576 97573 97572 97571 97570 97568 97567 97566 97564 97561 97558 97557 97555 97554 97553 97551 97550 97549 97547 97544 97543 97542 97541 97540 97538 97537 97535 97534 97533 97532 97530 97528 97527 97526 97525 97523 97522 97521 97518 97516 97514 97513 97512 97511 97510 97509 97507 97506 97505 97504 97503 97502 97501 97499 97498 97495 97494 97492 97489 97488 97487 97486 97485 97483 97482 97481 97479 97478 97476 97475 97473 97472 97471 97470 97469 97468 97467 97466 97463 97461 97460 97458 97457 97453 97451 97450 97449 97448 97447 97446 97445 97444 97443 97441 97440 97439 97437 97436 97435 97434 97432 97431 97429 97428 97427 97425 97423 97421 97419 97418 97416 97413 97412 97410 97408 97407 97405 97403 97402 97400 97396 97395 97394 97393 97391 97389 97387 97385 97384 97382 97380 97379 97376 97375 97373 97372 97371 97370 97369 97368 97367 97366 97365 97361 97359 97358 97357 97356 97355 97354 97352 97350 97349 97348 97347 97346 97345 97344 97343 97342 97341 97340 97339 97338 97336 97333 97332 97330 97328 97327 97326 97324 97323 97322 97319 97318 97315 97314 97313 97312 97310 97309 97308 97303 97302 97301 97300 97298 97296 97295 97294 97293 97292 97291 97290 97289 97288 97287 97286 97284 97281 97280 97279 97278 97277 97276 97275 97274 97273 97272 97271 97270 97269 97268 97267 97266 97265 97263 97262 97261 97260 97258 97256 97255 97254 97253 97250 97249 97248 97245 97243 97241 97240 97239 97237 97233 97232 97230 97228 97227 97224 97223 97221 97220 97219 97218 97216 97212 97209 97208 97207 97205 97200 97199 97198 97196 97194 97192 97190 97189 97188 97187 97186 97184 97183 97182 97181 97178 97177 97176 97175 97173 97172 97171 97170 97169 97168 97166 97165 97163 97160 97159 97158 97157 97156 97154 97153 97150 97149 97148 97146 97145 97144 97140 97139 97138 97134 97130 97129 97128 97127 97126 97125 97123 97122 97117 97116 97115 97114 97112 97111 97110 97109 97108 97107 97105 97104 97103 97099 97098 97097 97092 97089 97088 97087 97086 97085 97083 97082 97081 97080 97076 97075 97073 97071 97070 97067 97066 97062 97058 97057 97055 97052 97051 97050 97049 97047 97046 97045 97043 97042 97040 97039 97038 97037 97036 97035 97034 97031 97030 97029 97027 97023 97022 97021 97018 97017 97016 97015 97013 97012 97010 97007 97006 97004 97003 97001 96998 96996 96995 96994 96993 96992 96990 96989 96987 96985 96984 96983 96981 96980 96979 96977 96976 96975 96973 96971 96970 96968 96967 96966 96963 96962 96961 96959 96958 96957 96956 96955 96954 96952 96951 96950 96949 96947 96946 96945 96944 96943 96941 96940 96939 96938 96937 96935 96934 96932 96929 96926 96925 96924 96922 96921 96920 96919 96917 96916 96915 96913 96912 96910 96909 96907 96905 96903 96901 96899 96898 96897 96896 96894 96893 96892 96891 96890 96888 96886 96884 96883 96882 96881 96880 96879 96876 96874 96873 96872 96870 96869 96868 96867 96866 96864 96862 96858 96857 96855 96854 96852 96851 96850 96849 96848 96847 96845 96841 96839 96838 96837 96836 96835 96834 96833 96832 96831 96830 96829 96828 96827 96826 96825 96824 96823 96822 96821 96820 96819 96818 96817 96814 96813 96810 96809 96806 96805 96801 96800 96798 96797 96794 96792 96790 96789 96788 96787 96786 96785 96784 96780 96779 96778 96777 96776 96775 96773 96771 96769 96767 96766 96765 96764 96761 96760 96759 96758 96757 96755 96753 96752 96751 96749 96748 96747 96746 96744 96743 96742 96740 96739 96737 96735 96732 96731 96730 96729 96726 96725 96724 96723 96722 96721 96719 96718 96717 96715 96714 96713 96712 96711 96708 96707 96706 96705 96703 96700 96699 96698 96696 96695 96694 96692 96691 96690 96688 96687 96686 96685 96683 96682 96679 96678 96677 96676 96674 96673 96672 96670 96669 96668 96667 96666 96663 96662 96660 96659 96657 96656 96655 96654 96653 96652 96650 96649 96648 96647 96646 96644 96641 96640 96636 96635 96633 96632 96630 96629 96628 96627 96626 96625 96624 96623 96622 96619 96618 96617 96616 96615 96614 96613 96612 96611 96609 96605 96602 96600 96599 96597 96594 96590 96588 96587 96585 96583 96581 96579 96578 96577 96576 96571 96570 96569 96567 96566 96562 96560 96557 96554 96552 96551 96550 96548 96546 96540 96539 96534 96532 96530 96529 96528 96526 96525 96524 96523 96521 96519 96518 96517 96514 96512 96511 96509 96508 96507 96506 96503 96502 96500 96499 96497 96496 96495 96493 96491 96490 96487 96485 96483 96482 96481 96480 96478 96477 96475 96472 96469 96468 96467 96466 96465 96464 96463 96462 96460 96458 96456 96454 96453 96452 96451 96450 96449 96448 96447 96446 96445 96440 96439 96438 96437 96436 96434 96432 96430 96429 96428 96427 96423 96421 96420 96418 96417 96416 96414 96412 96411 96410 96407 96406 96405 96403 96402 96401 96395 96394 96391 96389 96387 96385 96384 96383 96381 96379 96378 96377 96376 96375 96374 96371 96370 96369 96368 96363 96362 96361 96360 96358 96356 96355 96353 96352 96351 96350 96349 96347 96346 96345 96344 96343 96342 96337 96336 96335 96334 96333 96332 96331 96330 96329 96328 96327 96325 96324 96323 96322 96321 96320 96319 96317 96316 96315 96314 96312 96311 96310 96309 96308 96307 96306 96305 96303 96301 96299 96298 96296 96295 96294 96293 96291 96290 96288 96286 96285 96282 96280 96279 96277 96276 96273 96270 96269 96268 96267 96266 96265 96264 96263 96259 96257 96253 96252 96251 96249 96247 96246 96245 96244 96243 96242 96241 96240 96237 96236 96234 96233 96232 96230 96229 96228 96227 96226 96225 96223 96221 96219 96218 96217 96214 96213 96212 96211 96210 96209 96208 96207 96206 96205 96204 96203 96199 96198 96197 96196 96194 96193 96192 96191 96189 96188 96186 96185 96184 96182 96181 96180 96178 96177 96176 96175 96173 96172 96169 96168 96166 96162 96160 96159 96157 96154 96151 96150 96148 96147 96146 96144 96143 96141 96139 96138 96133 96132 96131 96129 96127 96122 96120 96119 96118 96117 96115 96114 96113 96112 96111 96110 96109 96107 96106 96103 96102 96101 96100 96099 96098 96094 96093 96091 96090 96089 96087 96084 96083 96082 96079 96076 96075 96074 96073 96072 96071 96069 96067 96066 96065 96064 96063 96061 96059 96058 96057 96056 96055 96050 96049 96048 96047 96046 96045 96044 96041 96040 96039 96038 96036 96034 96033 96031 96030 96029 96027 96026 96025 96023 96022 96021 96020 96018 96014 96013 96012 96011 96009 96007 96005 96004 96003 96000 95999 95997 95996 95995 95993 95992 95990 95988 95987 95985 95984 95983 95982 95980 95979 95977 95976 95975 95974 95973 95972 95970 95969 95968 95967 95966 95965 95964 95962 95961 95960 95959 95958 95956 95955 95952 95951 95949 95948 95947 95946 95945 95944 95943 95941 95940 95939 95936 95935 95934 95932 95930 95929 95928 95927 95926 95924 95923 95922 95921 95920 95918 95917 95916 95915 95914 95913 95911 95910 95909 95906 95905 95903 95902 95901 95899 95898 95897 95896 95894 95889 95888 95886 95884 95883 95882 95881 95880 95879 95878 95877 95875 95874 95873 95872 95871 95870 95869 95867 95866 95863 95862 95860 95859 95858 95857 95856 95855 95854 95852 95851 95849 95848 95847 95846 95845 95842 95839 95837 95836 95835 95831 95830 95826 95825 95824 95823 95822 95821 95819 95816 95815 95812 95811 95810 95809 95808 95806 95805 95804 95800 95798 95797 95796 95795 95793 95792 95791 95790 95788 95786 95785 95784 95783 95782 95781 95777 95776 95774 95773 95772 95766 95762 95759 95758 95757 95756 95753 95752 95750 95749 95747 95746 95744 95741 95740 95739 95735 95734 95733 95732 95729 95728 95727 95726 95725 95724 95723 95717 95716 95715 95712 95709 95708 95707 95705 95703 95702 95701 95700 95699 95698 95695 95694 95693 95692 95688 95686 95685 95684 95682 95679 95678 95677 95676 95675 95673 95671 95669 95668 95667 95664 95663 95662 95659 95658 95657 95656 95655 95654 95653 95650 95649 95647 95646 95642 95641 95640 95639 95635 95633 95632 95631 95630 95629 95628 95627 95623 95621 95620 95619 95618 95617 95616 95615 95614 95613 95611 95609 95603 95602 95601 95600 95599 95598 95597 95591 95587 95585 95584 95583 95582 95581 95580 95578 95577 95576 95575 95574 95572 95571 95570 95568 95566 95565 95564 95563 95561 95557 95556 95555 95554 95552 95551 95550 95546 95545 95544 95540 95539 95538 95537 95535 95531 95528 95526 95525 95523 95521 95520 95519 95518 95516 95514 95513 95512 95509 95506 95505 95504 95502 95501 95500 95499 95498 95497 95496 95495 95492 95491 95490 95487 95486 95485 95481 95480 95479 95477 95476 95475 95474 95473 95471 95469 95468 95467 95466 95463 95462 95461 95459 95457 95456 95455 95453 95452 95451 95450 95449 95447 95446 95445 95444 95443 95439 95438 95437 95434 95432 95430 95428 95427 95425 95424 95423 95422 95420 95419 95417 95415 95414 95411 95409 95408 95406 95405 95404 95403 95402 95400 95398 95397 95396 95394 95392 95391 95390 95389 95388 95386 95385 95384 95382 95380 95379 95378 95377 95376 95375 95374 95372 95370 95368 95366 95363 95362 95361 95360 95359 95358 95354 95351 95350 95349 95348 95347 95346 95345 95343 95341 95340 95337 95335 95333 95332 95331 95330 95329 95328 95327 95326 95322 95320 95319 95318 95317 95316 95315 95313 95310 95309 95308 95306 95304 95303 95302 95300 95299 95296 95295 95292 95290 95289 95285 95284 95283 95282 95281 95280 95279 95278 95276 95275 95274 95272 95271 95270 95269 95268 95266 95265 95264 95263 95262 95261 95260 95259 95258 95257 95256 95255 95254 95252 95251 95249 95248 95246 95245 95244 95243 95240 95238 95237 95235 95234 95231 95229 95228 95227 95226 95224 95222 95221 95219 95217 95216 95215 95212 95211 95210 95209 95208 95207 95206 95202 95201 95200 95197 95196 95195 95194 95193 95191 95190 95189 95187 95184 95181 95180 95179 95178 95177 95176 95171 95170 95169 95167 95166 95165 95164 95163 95162 95161 95160 95159 95156 95155 95153 95152 95149 95148 95146 95145 95143 95142 95141 95140 95139 95138 95137 95135 95133 95132 95131 95127 95125 95124 95122 95118 95117 95116 95114 95113 95111 95110 95109 95108 95107 95105 95100 95099 95097 95096 95093 95092 95090 95089 95086 95085 95084 95083 95082 95081 95080 95078 95077 95076 95074 95073 95072 95071 95069 95066 95063 95062 95061 95060 95059 95058 95057 95056 95052 95051 95050 95046 95045 95044 95043 95042 95040 95037 95034 95033 95032 95030 95028 95027 95025 95024 95023 95020 95019 95018 95017 95015 95014 95013 95012 95011 95010 95009 95008 95007 95005 95004 95002 95001 95000 94999 94998 94997 94996 94995 94994 94992 94990 94987 94984 94983 94982 94980 94979 94976 94974 94972 94970 94969 94968 94967 94966 94965 94964 94963 94961 94960 94959 94957 94956 94955 94954 94953 94952 94950 94949 94946 94945 94944 94943 94942 94941 94939 94938 94937 94936 94935 94934 94932 94931 94930 94927 94926 94924 94923 94919 94917 94916 94914 94913 94911 94910 94909 94908 94907 94906 94904 94903 94896 94895 94893 94891 94888 94887 94886 94885 94884 94881 94879 94878 94877 94876 94875 94874 94871 94870 94869 94867 94866 94864 94863 94861 94860 94859 94857 94856 94854 94853 94852 94851 94850 94849 94848 94847 94846 94845 94843 94842 94841 94840 94838 94837 94834 94833 94832 94831 94829 94827 94823 94822 94821 94819 94818 94817 94816 94814 94809 94808 94806 94805 94804 94802 94798 94797 94796 94794 94791 94790 94789 94786 94783 94781 94780 94777 94776 94775 94773 94772 94771 94770 94769 94766 94764 94763 94761 94759 94758 94756 94755 94754 94753 94752 94751 94749 94748 94747 94745 94744 94743 94741 94740 94738 94737 94736 94735 94734 94732 94729 94728 94726 94725 94723 94722 94721 94719 94718 94717 94716 94714 94712 94709 94708 94706 94705 94704 94703 94702 94700 94698 94697 94696 94694 94693 94692 94691 94688 94686 94685 94684 94683 94682 94681 94680 94679 94677 94676 94675 94674 94673 94670 94669 94668 94667 94665 94664 94663 94662 94661 94660 94658 94657 94656 94655 94653 94649 94648 94646 94645 94644 94643 94642 94640 94639 94638 94636 94635 94634 94630 94629 94627 94624 94623 94622 94620 94618 94617 94616 94614 94613 94611 94607 94606 94605 94604 94603 94601 94600 94599 94598 94597 94595 94594 94592 94591 94589 94588 94586 94585 94583 94582 94581 94580 94579 94578 94576 94575 94574 94573 94568 94567 94566 94565 94564 94563 94562 94560 94559 94558 94557 94554 94552 94551 94550 94549 94548 94547 94543 94540 94539 94538 94537 94536 94535 94534 94532 94531 94530 94529 94526 94522 94520 94518 94513 94511 94510 94508 94507 94505 94503 94501 94499 94498 94496 94495 94493 94492 94490 94489 94484 94483 94482 94481 94480 94479 94478 94477 94476 94475 94474 94472 94471 94470 94469 94468 94466 94464 94463 94458 94457 94455 94454 94453 94452 94451 94450 94449 94448 94445 94444 94443 94441 94440 94439 94437 94435 94434 94433 94430 94428 94425 94424 94422 94421 94420 94419 94417 94416 94413 94411 94409 94408 94407 94406 94403 94402 94401 94400 94399 94398 94396 94395 94394 94392 94391 94390 94389 94388 94387 94386 94385 94384 94382 94380 94378 94376 94375 94374 94373 94372 94370 94369 94364 94362 94360 94359 94357 94352 94351 94350 94349 94348 94347 94343 94341 94340 94339 94338 94337 94336 94334 94332 94330 94329 94328 94327 94326 94325 94324 94322 94320 94319 94317 94315 94313 94312 94311 94310 94308 94307 94306 94305 94304 94303 94302 94300 94298 94296 94295 94294 94293 94290 94289 94288 94287 94286 94285 94284 94283 94281 94279 94278 94274 94268 94265 94264 94263 94262 94256 94254 94253 94252 94251 94250 94248 94247 94246 94245 94244 94243 94241 94240 94239 94238 94237 94236 94234 94233 94230 94229 94227 94225 94224 94223 94222 94221 94220 94219 94218 94217 94216 94215 94213 94211 94210 94208 94205 94203 94202 94201 94199 94197 94195 94193 94191 94188 94187 94186 94185 94184 94183 94182 94180 94179 94178 94175 94174 94173 94172 94171 94169 94168 94164 94161 94159 94158 94157 94156 94155 94154 94151 94150 94149 94148 94147 94146 94143 94141 94138 94136 94135 94134 94133 94132 94131 94130 94128 94126 94124 94123 94121 94120 94119 94118 94117 94115 94113 94112 94110 94109 94107 94106 94105 94102 94100 94099 94096 94095 94092 94091 94090 94089 94088 94087 94085 94083 94082 94079 94078 94076 94075 94074 94073 94072 94071 94069 94068 94067 94066 94065 94064 94063 94062 94061 94060 94059 94057 94056 94054 94052 94051 94050 94048 94047 94046 94045 94044 94043 94042 94041 94040 94039 94038 94037 94036 94033 94030 94029 94028 94027 94025 94023 94022 94021 94019 94018 94016 94013 94012 94011 94007 94006 94005 94003 94002 94000 93998 93997 93996 93995 93993 93992 93990 93987 93986 93985 93982 93981 93977 93975 93974 93973 93971 93969 93968 93967 93965 93964 93963 93962 93961 93960 93958 93957 93955 93954 93950 93948 93945 93944 93943 93942 93941 93939 93938 93937 93933 93932 93929 93925 93923 93922 93921 93920 93918 93914 93913 93912 93907 93901 93900 93899 93896 93895 93894 93893 93892 93891 93890 93889 93887 93885 93884 93882 93881 93879 93878 93877 93875 93874 93872 93871 93869 93868 93866 93865 93863 93862 93861 93860 93859 93857 93856 93852 93850 93848 93847 93846 93845 93844 93842 93841 93839 93838 93836 93835 93833 93832 93831 93829 93828 93826 93824 93823 93822 93821 93820 93819 93818 93817 93815 93814 93813 93812 93811 93810 93809 93807 93806 93805 93803 93801 93799 93797 93794 93791 93790 93789 93787 93785 93784 93783 93777 93776 93775 93774 93773 93772 93771 93767 93766 93765 93764 93761 93760 93759 93758 93757 93755 93754 93752 93751 93747 93744 93743 93742 93741 93738 93737 93736 93735 93733 93732 93730 93729 93725 93724 93723 93721 93719 93718 93715 93713 93710 93709 93708 93707 93706 93705 93704 93703 93701 93699 93698 93696 93695 93693 93692 93688 93687 93686 93685 93683 93680 93679 93675 93673 93670 93669 93668 93665 93663 93662 93660 93658 93657 93656 93655 93653 93652 93651 93650 93648 93647 93646 93642 93640 93639 93637 93635 93632 93631 93630 93628 93626 93625 93624 93622 93621 93619 93618 93617 93616 93615 93614 93613 93612 93610 93608 93607 93605 93604 93602 93601 93600 93599 93598 93596 93595 93594 93591 93590 93588 93586 93585 93584 93583 93582 93581 93576 93571 93570 93569 93566 93565 93564 93561 93560 93557 93550 93548 93547 93544 93543 93542 93541 93540 93539 93538 93537 93536 93535 93534 93533 93532 93531 93529 93528 93527 93526 93525 93524 93523 93522 93521 93518 93517 93515 93514 93511 93510 93509 93508 93503 93502 93500 93498 93496 93495 93493 93492 93489 93488 93487 93485 93484 93483 93482 93481 93480 93479 93478 93477 93476 93475 93473 93472 93471 93467 93463 93461 93460 93459 93458 93457 93455 93454 93452 93451 93450 93449 93446 93445 93444 93441 93440 93439 93438 93437 93436 93434 93432 93429 93428 93427 93426 93425 93424 93423 93422 93421 93420 93419 93418 93416 93415 93414 93412 93411 93409 93407 93406 93405 93404 93403 93402 93400 93398 93397 93396 93394 93392 93390 93388 93386 93385 93384 93382 93381 93378 93376 93375 93374 93372 93371 93370 93368 93367 93365 93363 93362 93361 93358 93357 93356 93353 93351 93350 93349 93348 93347 93346 93344 93342 93340 93339 93338 93336 93335 93334 93332 93328 93327 93326 93325 93324 93323 93322 93321 93319 93317 93316 93315 93314 93313 93312 93308 93307 93306 93304 93303 93302 93301 93299 93298 93297 93293 93290 93289 93287 93286 93284 93283 93279 93277 93274 93273 93272 93268 93267 93266 93265 93264 93263 93262 93261 93260 93259 93258 93254 93253 93252 93251 93250 93249 93248 93247 93246 93244 93243 93240 93238 93234 93232 93230 93229 93227 93225 93224 93223 93222 93221 93220 93218 93216 93215 93214 93213 93210 93209 93208 93207 93202 93200 93199 93198 93197 93196 93195 93194 93192 93191 93189 93187 93185 93184 93183 93181 93180 93176 93175 93174 93170 93169 93166 93165 93163 93161 93160 93159 93158 93157 93156 93155 93154 93153 93151 93150 93147 93146 93145 93144 93142 93141 93140 93138 93137 93136 93134 93129 93128 93127 93125 93124 93123 93121 93120 93119 93118 93116 93114 93113 93112 93111 93109 93108 93104 93102 93100 93098 93096 93095 93094 93093 93092 93091 93090 93089 93087 93086 93085 93084 93080 93079 93078 93076 93073 93071 93070 93069 93068 93067 93066 93065 93063 93059 93058 93056 93055 93054 93052 93051 93042 93041 93040 93038 93035 93034 93029 93028 93026 93023 93022 93021 93019 93018 93016 93015 93014 93013 93012 93011 93010 93009 93007 93006 93005 93004 93001 92998 92997 92996 92995 92994 92992 92991 92989 92985 92984 92982 92981 92979 92976 92975 92974 92973 92970 92968 92967 92966 92964 92963 92962 92961 92960 92959 92958 92957 92956 92953 92952 92951 92950 92949 92948 92945 92944 92942 92941 92937 92936 92935 92934 92933 92932 92930 92929 92928 92927 92921 92915 92914 92913 92912 92910 92909 92908 92907 92906 92904 92903 92902 92901 92900 92898 92897 92896 92894 92893 92891 92890 92889 92885 92884 92883 92879 92877 92875 92872 92870 92869 92868 92867 92866 92864 92862 92860 92859 92858 92857 92856 92855 92854 92853 92852 92850 92849 92846 92844 92843 92842 92840 92838 92837 92836 92834 92833 92830 92829 92827 92826 92824 92823 92822 92820 92818 92816 92815 92813 92812 92811 92809 92808 92807 92806 92804 92803 92802 92800 92798 92794 92793 92792 92790 92789 92786 92785 92784 92781 92779 92778 92776 92775 92774 92773 92772 92771 92770 92769 92768 92767 92765 92764 92763 92762 92759 92758 92757 92756 92755 92752 92750 92748 92747 92746 92745 92740 92739 92738 92734 92732 92731 92730 92729 92728 92727 92726 92725 92724 92723 92722 92719 92717 92715 92713 92712 92711 92706 92705 92702 92701 92699 92698 92697 92696 92695 92694 92693 92692 92691 92690 92689 92685 92684 92679 92678 92677 92673 92672 92671 92670 92669 92668 92666 92665 92664 92663 92662 92661 92660 92659 92658 92657 92656 92655 92652 92650 92649 92648 92647 92646 92645 92644 92643 92642 92641 92640 92639 92637 92635 92634 92633 92632 92631 92630 92629 92628 92626 92624 92623 92622 92621 92620 92619 92618 92616 92615 92613 92612 92611 92608 92607 92606 92605 92604 92603 92601 92599 92598 92597 92595 92594 92593 92592 92591 92589 92585 92583 92582 92581 92578 92575 92574 92573 92572 92570 92569 92568 92567 92565 92564 92563 92562 92561 92558 92553 92552 92549 92548 92546 92545 92543 92538 92537 92536 92535 92534 92533 92532 92531 92529 92527 92526 92525 92524 92523 92522 92521 92520 92518 92517 92516 92515 92514 92512 92510 92509 92506 92504 92503 92501 92500 92497 92496 92493 92490 92487 92486 92484 92482 92481 92480 92479 92477 92474 92473 92472 92471 92469 92468 92467 92466 92463 92461 92458 92455 92452 92451 92448 92446 92444 92443 92442 92441 92440 92438 92437 92435 92432 92431 92430 92429 92428 92427 92426 92423 92422 92421 92420 92417 92416 92415 92414 92413 92411 92410 92409 92408 92407 92406 92405 92403 92402 92401 92400 92399 92397 92394 92392 92391 92390 92389 92388 92387 92386 92385 92384 92381 92380 92379 92378 92376 92375 92374 92371 92369 92367 92366 92365 92361 92360 92359 92358 92355 92353 92351 92349 92348 92346 92345 92344 92343 92341 92340 92339 92338 92337 92336 92334 92333 92331 92330 92329 92328 92325 92324 92323 92322 92321 92318 92317 92316 92315 92314 92312 92310 92309 92308 92307 92305 92304 92303 92302 92301 92300 92298 92297 92296 92295 92293 92292 92290 92289 92288 92283 92282 92281 92279 92278 92277 92274 92272 92271 92268 92267 92265 92264 92261 92260 92259 92257 92256 92255 92254 92253 92251 92249 92246 92245 92244 92243 92242 92241 92240 92239 92238 92236 92235 92232 92231 92230 92229 92228 92225 92224 92223 92221 92220 92218 92215 92214 92213 92210 92208 92207 92203 92202 92201 92200 92199 92197 92196 92192 92191 92190 92189 92187 92186 92184 92182 92181 92178 92177 92176 92175 92174 92172 92171 92170 92168 92165 92161 92160 92159 92158 92156 92155 92154 92151 92150 92148 92147 92145 92144 92143 92140 92139 92138 92137 92136 92134 92129 92128 92127 92124 92121 92120 92119 92118 92117 92116 92113 92111 92110 92108 92107 92106 92104 92103 92102 92101 92099 92098 92096 92095 92091 92089 92088 92087 92086 92085 92081 92078 92077 92074 92073 92071 92069 92068 92067 92065 92063 92062 92059 92058 92057 92056 92055 92054 92053 92052 92051 92050 92049 92048 92046 92045 92044 92043 92042 92041 92039 92037 92033 92032 92029 92028 92025 92024 92022 92021 92019 92016 92013 92012 92011 92009 92006 92004 92003 92002 92001 92000 91998 91997 91994 91993 91992 91987 91984 91983 91982 91981 91980 91979 91978 91977 91976 91975 91971 91969 91966 91964 91963 91961 91960 91959 91958 91957 91956 91955 91952 91950 91949 91947 91946 91944 91942 91941 91938 91937 91935 91932 91930 91928 91927 91926 91923 91919 91918 91916 91915 91913 91912 91911 91910 91907 91906 91904 91902 91900 91899 91898 91897 91895 91894 91892 91891 91890 91888 91886 91885 91883 91882 91880 91878 91875 91874 91871 91869 91868 91867 91866 91865 91864 91863 91862 91861 91860 91858 91857 91856 91855 91853 91852 91851 91849 91847 91846 91844 91843 91841 91840 91839 91838 91837 91836 91835 91834 91833 91832 91831 91829 91827 91823 91822 91821 91820 91819 91818 91817 91815 91814 91812 91808 91807 91806 91805 91803 91802 91798 91797 91795 91793 91791 91790 91789 91788 91787 91786 91784 91782 91781 91780 91779 91778 91777 91776 91774 91772 91771 91770 91768 91767 91766 91765 91764 91762 91761 91760 91759 91758 91757 91756 91755 91754 91753 91752 91750 91749 91748 91747 91746 91743 91741 91739 91738 91737 91736 91735 91734 91731 91729 91728 91727 91726 91725 91724 91723 91722 91720 91719 91718 91717 91716 91715 91714 91710 91709 91708 91705 91703 91701 91700 91699 91697 91696 91695 91693 91692 91691 91687 91686 91684 91682 91681 91680 91679 91678 91676 91675 91674 91673 91672 91670 91668 91667 91665 91663 91662 91661 91660 91659 91657 91656 91655 91653 91651 91649 91648 91647 91645 91643 91641 91640 91639 91638 91637 91636 91635 91634 91633 91632 91631 91630 91629 91628 91627 91626 91624 91623 91622 91621 91620 91619 91618 91614 91613 91612 91608 91607 91606 91605 91603 91601 91600 91599 91597 91596 91595 91594 91593 91591 91590 91589 91588 91587 91586 91585 91584 91581 91580 91579 91578 91577 91576 91575 91574 91573 91571 91570 91569 91567 91566 91564 91561 91560 91559 91557 91556 91553 91552 91550 91547 91546 91544 91543 91542 91539 91538 91537 91536 91535 91534 91532 91531 91530 91527 91526 91524 91523 91522 91520 91518 91517 91516 91515 91513 91510 91509 91508 91507 91505 91503 91502 91498 91497 91496 91495 91494 91492 91491 91490 91489 91488 91486 91485 91483 91481 91480 91479 91478 91476 91475 91474 91473 91472 91471 91468 91466 91465 91464 91463 91461 91460 91459 91458 91456 91455 91454 91453 91452 91450 91448 91446 91444 91443 91440 91439 91438 91437 91436 91435 91434 91433 91430 91429 91427 91426 91424 91423 91422 91420 91418 91417 91416 91415 91414 91412 91411 91409 91408 91407 91406 91404 91403 91402 91399 91397 91396 91394 91393 91392 91391 91388 91387 91386 91385 91382 91381 91380 91379 91376 91375 91374 91373 91371 91368 91366 91365 91364 91363 91362 91361 91360 91359 91355 91354 91353 91352 91351 91350 91349 91347 91345 91344 91342 91341 91340 91339 91338 91335 91333 91332 91330 91329 91328 91325 91322 91321 91319 91318 91317 91316 91315 91314 91312 91311 91310 91307 91306 91304 91301 91300 91299 91298 91296 91295 91294 91292 91290 91289 91288 91287 91286 91284 91283 91281 91279 91278 91277 91275 91273 91271 91270 91268 91266 91265 91264 91263 91262 91259 91258 91256 91255 91254 91253 91251 91250 91249 91247 91246 91245 91244 91241 91239 91236 91233 91232 91231 91230 91229 91227 91226 91225 91221 91217 91216 91215 91213 91212 91211 91210 91209 91208 91207 91206 91204 91203 91202 91201 91200 91199 91198 91197 91195 91194 91192 91190 91189 91187 91185 91183 91182 91181 91178 91175 91174 91173 91172 91169 91164 91163 91160 91158 91156 91155 91153 91152 91151 91149 91148 91147 91146 91145 91143 91141 91140 91139 91138 91137 91136 91135 91134 91133 91132 91131 91130 91129 91128 91127 91125 91124 91123 91122 91121 91120 91119 91118 91117 91115 91113 91111 91110 91109 91108 91107 91106 91105 91104 91103 91102 91101 91100 91099 91098 91096 91095 91091 91089 91087 91086 91081 91080 91079 91078 91077 91076 91075 91074 91073 91072 91069 91068 91064 91062 91061 91059 91058 91057 91055 91054 91053 91051 91049 91048 91045 91042 91041 91039 91037 91036 91035 91034 91032 91031 91030 91028 91025 91024 91021 91020 91018 91017 91016 91015 91014 91013 91009 91007 91005 91004 91003 91001 90999 90998 90995 90994 90993 90992 90991 90990 90988 90987 90986 90985 90984 90982 90980 90979 90978 90977 90973 90970 90969 90968 90967 90966 90964 90960 90958 90956 90955 90954 90952 90951 90950 90948 90947 90945 90943 90942 90941 90940 90939 90933 90932 90930 90929 90927 90926 90925 90924 90921 90920 90919 90917 90916 90914 90913 90912 90909 90906 90904 90903 90902 90900 90899 90897 90896 90894 90893 90891 90890 90889 90888 90887 90885 90884 90881 90880 90879 90875 90874 90873 90872 90871 90870 90869 90868 90867 90866 90864 90863 90862 90860 90859 90858 90856 90855 90854 90853 90851 90849 90847 90846 90844 90843 90842 90841 90838 90837 90836 90834 90832 90831 90830 90829 90828 90827 90825 90823 90822 90820 90818 90817 90816 90815 90814 90813 90811 90810 90808 90807 90806 90803 90802 90801 90800 90799 90798 90797 90795 90792 90791 90790 90789 90788 90787 90786 90785 90784 90783 90781 90780 90779 90778 90777 90776 90775 90774 90771 90770 90769 90768 90767 90764 90763 90762 90758 90757 90756 90754 90753 90752 90751 90750 90749 90748 90747 90746 90743 90742 90741 90740 90739 90738 90737 90736 90734 90733 90732 90731 90730 90729 90727 90726 90724 90723 90722 90721 90720 90719 90718 90717 90715 90714 90713 90711 90709 90706 90705 90704 90703 90702 90700 90698 90697 90696 90693 90692 90688 90686 90685 90684 90683 90682 90680 90679 90678 90676 90675 90674 90673 90671 90670 90669 90668 90667 90665 90664 90663 90662 90657 90656 90655 90653 90652 90651 90649 90648 90644 90642 90640 90639 90637 90636 90635 90633 90632 90631 90630 90629 90628 90626 90623 90622 90621 90620 90619 90618 90616 90615 90614 90613 90610 90608 90607 90604 90603 90599 90598 90595 90594 90593 90592 90588 90586 90585 90584 90579 90578 90576 90575 90574 90572 90571 90570 90569 90565 90564 90563 90562 90561 90560 90558 90555 90554 90551 90549 90548 90547 90546 90545 90544 90543 90542 90541 90540 90539 90538 90537 90535 90534 90532 90531 90530 90526 90523 90521 90518 90514 90513 90512 90511 90509 90508 90507 90505 90504 90503 90499 90497 90496 90495 90493 90492 90491 90490 90488 90487 90486 90485 90481 90479 90478 90477 90476 90474 90473 90472 90471 90469 90468 90466 90464 90463 90462 90461 90460 90459 90458 90457 90456 90455 90454 90452 90451 90449 90448 90446 90445 90444 90442 90439 90438 90437 90435 90434 90433 90432 90431 90430 90429 90428 90426 90424 90423 90422 90421 90420 90419 90417 90416 90415 90414 90413 90412 90411 90410 90407 90406 90405 90402 90401 90400 90399 90398 90397 90393 90391 90390 90388 90387 90386 90385 90384 90383 90382 90381 90380 90378 90377 90375 90374 90373 90372 90371 90370 90369 90368 90367 90366 90365 90363 90360 90358 90355 90354 90353 90352 90351 90350 90349 90347 90346 90345 90344 90343 90342 90341 90340 90338 90337 90336 90334 90332 90331 90329 90328 90327 90324 90323 90322 90321 90314 90313 90312 90307 90305 90303 90301 90300 90299 90296 90295 90294 90292 90291 90290 90289 90288 90287 90286 90285 90284 90283 90282 90281 90280 90277 90276 90275 90274 90272 90271 90270 90269 90267 90266 90265 90264 90263 90262 90261 90260 90258 90257 90256 90255 90253 90251 90249 90248 90247 90246 90245 90244 90242 90239 90238 90237 90236 90235 90233 90232 90231 90229 90228 90227 90226 90224 90223 90222 90220 90219 90218 90216 90215 90214 90213 90211 90210 90209 90208 90207 90206 90205 90204 90203 90200 90198 90197 90196 90195 90193 90192 90191 90190 90189 90187 90184 90183 90182 90181 90179 90178 90176 90172 90171 90170 90169 90168 90164 90163 90162 90160 90158 90157 90155 90154 90153 90152 90151 90150 90149 90148 90147 90143 90142 90141 90140 90139 90138 90137 90136 90134 90131 90129 90128 90127 90124 90123 90121 90120 90118 90117 90116 90115 90112 90111 90110 90109 90108 90107 90106 90105 90102 90100 90099 90098 90097 90096 90094 90093 90092 90091 90090 90088 90087 90086 90085 90084 90082 90081 90079 90077 90075 90074 90071 90069 90068 90067 90066 90065 90064 90063 90062 90061 90059 90058 90055 90053 90052 90051 90050 90048 90047 90046 90043 90042 90041 90040 90039 90038 90036 90034 90032 90031 90030 90029 90028 90026 90025 90024 90022 90020 90019 90018 90017 90013 90009 90005 90003 90002 90001 89999 89996 89995 89992 89991 89990 89989 89987 89986 89985 89984 89982 89980 89979 89978 89974 89973 89972 89971 89969 89967 89966 89963 89960 89959 89958 89957 89955 89954 89953 89952 89951 89950 89948 89944 89941 89939 89937 89935 89934 89932 89931 89930 89929 89927 89926 89925 89924 89923 89922 89921 89918 89916 89915 89912 89910 89909 89906 89905 89904 89902 89900 89897 89896 89893 89892 89891 89889 89888 89887 89886 89885 89883 89882 89877 89875 89874 89873 89871 89869 89868 89864 89862 89859 89857 89855 89854 89853 89852 89850 89849 89848 89846 89845 89844 89843 89841 89840 89838 89834 89833 89831 89830 89828 89826 89825 89824 89821 89820 89819 89818 89817 89816 89815 89814 89812 89811 89810 89809 89807 89806 89805 89804 89802 89801 89800 89798 89797 89795 89794 89793 89792 89791 89789 89787 89786 89784 89782 89781 89780 89779 89777 89775 89774 89773 89772 89771 89770 89769 89768 89767 89766 89765 89764 89762 89761 89760 89759 89758 89756 89755 89754 89753 89752 89749 89748 89747 89746 89745 89744 89741 89740 89739 89738 89737 89736 89735 89731 89729 89726 89725 89723 89722 89720 89719 89718 89716 89715 89714 89711 89709 89707 89703 89701 89700 89699 89698 89697 89696 89688 89687 89685 89684 89683 89682 89681 89679 89676 89675 89674 89670 89669 89668 89667 89666 89664 89663 89661 89660 89658 89656 89654 89653 89652 89651 89650 89649 89648 89647 89645 89641 89639 89637 89636 89635 89634 89633 89632 89631 89630 89629 89626 89624 89621 89620 89619 89618 89617 89616 89615 89614 89613 89612 89611 89610 89609 89608 89607 89605 89604 89602 89601 89600 89597 89595 89593 89591 89589 89586 89584 89582 89578 89576 89573 89572 89571 89570 89569 89568 89567 89566 89565 89564 89563 89562 89558 89556 89555 89554 89552 89551 89549 89548 89546 89545 89544 89543 89542 89541 89540 89539 89538 89536 89531 89530 89529 89527 89526 89524 89523 89521 89520 89519 89518 89517 89516 89514 89513 89512 89511 89507 89506 89505 89504 89502 89500 89498 89497 89494 89493 89492 89490 89489 89487 89486 89477 89474 89473 89472 89471 89470 89469 89468 89467 89466 89462 89461 89460 89454 89453 89452 89451 89450 89449 89448 89447 89446 89445 89444 89442 89440 89439 89438 89435 89434 89433 89432 89431 89430 89429 89428 89427 89425 89422 89421 89420 89419 89415 89412 89411 89410 89409 89404 89401 89400 89399 89398 89397 89396 89390 89389 89388 89386 89385 89384 89383 89382 89381 89380 89379 89377 89375 89368 89367 89366 89365 89364 89358 89357 89356 89355 89354 89353 89350 89348 89345 89344 89343 89341 89340 89339 89338 89336 89335 89334 89333 89332 89331 89328 89325 89324 89323 89322 89320 89319 89318 89317 89316 89315 89311 89309 89305 89304 89303 89302 89301 89300 89299 89297 89296 89295 89294 89293 89292 89289 89288 89286 89285 89283 89282 89280 89279 89278 89276 89275 89273 89272 89271 89270 89269 89268 89267 89261 89260 89259 89258 89256 89255 89254 89253 89250 89249 89246 89244 89243 89241 89240 89238 89237 89236 89234 89232 89228 89227 89226 89223 89222 89221 89220 89219 89218 89217 89216 89214 89213 89212 89211 89210 89208 89207 89204 89203 89202 89201 89200 89199 89198 89196 89195 89193 89190 89189 89187 89186 89185 89184 89180 89178 89177 89176 89175 89174 89173 89172 89171 89167 89166 89165 89164 89163 89162 89161 89158 89157 89156 89155 89151 89150 89149 89148 89144 89143 89141 89140 89139 89138 89136 89135 89132 89131 89127 89126 89125 89123 89122 89120 89119 89118 89117 89116 89115 89112 89109 89108 89107 89106 89104 89103 89102 89101 89100 89099 89098 89095 89094 89092 89091 89090 89088 89087 89086 89084 89082 89080 89079 89077 89076 89075 89073 89072 89071 89070 89069 89068 89066 89064 89062 89061 89060 89059 89058 89057 89056 89054 89053 89052 89051 89050 89049 89048 89047 89046 89045 89044 89043 89041 89039 89037 89036 89033 89032 89029 89028 89027 89025 89024 89023 89022 89020 89019 89018 89017 89014 89013 89011 89010 89007 89006 89005 89003 89002 89000 88998 88997 88995 88994 88993 88992 88991 88987 88986 88983 88982 88980 88978 88974 88973 88972 88971 88970 88967 88966 88965 88964 88963 88962 88961 88960 88959 88958 88957 88956 88954 88953 88952 88950 88948 88947 88946 88945 88944 88943 88942 88941 88940 88937 88935 88934 88931 88928 88927 88925 88924 88923 88921 88919 88918 88917 88916 88915 88911 88910 88908 88907 88906 88905 88902 88901 88900 88898 88896 88893 88892 88891 88890 88889 88888 88887 88885 88884 88882 88881 88880 88879 88878 88877 88874 88873 88872 88870 88869 88868 88867 88865 88864 88863 88862 88861 88860 88859 88858 88857 88855 88854 88852 88851 88850 88847 88846 88844 88839 88838 88837 88836 88835 88834 88833 88832 88829 88828 88827 88826 88825 88824 88821 88819 88818 88817 88816 88814 88813 88812 88811 88809 88808 88807 88803 88800 88798 88797 88796 88794 88792 88791 88790 88788 88787 88786 88784 88783 88781 88780 88779 88778 88777 88776 88775 88774 88773 88772 88769 88767 88766 88765 88764 88761 88760 88757 88756 88755 88752 88750 88748 88745 88744 88743 88742 88741 88740 88737 88735 88733 88732 88730 88729 88727 88726 88724 88721 88720 88718 88716 88713 88711 88710 88709 88708 88707 88705 88704 88700 88699 88698 88697 88696 88695 88694 88693 88692 88690 88688 88687 88686 88685 88684 88682 88681 88680 88679 88678 88674 88673 88672 88671 88669 88668 88667 88666 88664 88660 88659 88658 88657 88656 88654 88653 88649 88648 88647 88644 88642 88641 88639 88637 88635 88634 88631 88630 88629 88628 88625 88623 88621 88620 88619 88617 88615 88614 88613 88610 88609 88608 88607 88606 88605 88604 88601 88599 88598 88597 88595 88594 88593 88592 88590 88589 88588 88586 88584 88583 88581 88580 88578 88577 88576 88574 88573 88572 88571 88569 88568 88565 88562 88561 88560 88559 88557 88555 88553 88552 88549 88548 88546 88545 88544 88543 88542 88541 88538 88536 88535 88533 88532 88530 88529 88527 88526 88525 88520 88519 88517 88516 88515 88514 88513 88512 88511 88510 88508 88506 88505 88501 88500 88499 88498 88494 88490 88489 88488 88486 88484 88483 88481 88480 88478 88477 88475 88474 88473 88469 88468 88467 88466 88465 88464 88463 88462 88461 88460 88457 88456 88453 88452 88451 88448 88447 88446 88445 88443 88442 88441 88440 88439 88437 88435 88432 88431 88430 88427 88426 88424 88423 88422 88421 88419 88417 88416 88415 88414 88411 88409 88408 88406 88404 88401 88400 88399 88398 88397 88396 88392 88390 88389 88387 88385 88384 88382 88381 88380 88379 88377 88375 88374 88373 88372 88370 88369 88368 88366 88365 88363 88361 88359 88356 88355 88354 88353 88352 88349 88347 88344 88343 88342 88341 88338 88336 88335 88334 88332 88331 88329 88328 88327 88324 88323 88322 88321 88318 88317 88316 88315 88314 88313 88311 88310 88309 88307 88306 88305 88304 88303 88301 88300 88299 88297 88296 88295 88294 88292 88289 88283 88282 88281 88279 88277 88276 88275 88274 88272 88270 88269 88267 88264 88263 88262 88260 88259 88256 88255 88253 88251 88250 88249 88248 88246 88245 88244 88243 88241 88240 88239 88237 88234 88233 88232 88231 88229 88228 88226 88225 88224 88223 88222 88221 88220 88217 88216 88215 88212 88211 88209 88208 88207 88206 88204 88202 88201 88200 88199 88197 88196 88194 88193 88192 88189 88187 88185 88184 88183 88182 88179 88178 88177 88176 88175 88172 88171 88170 88169 88168 88167 88166 88165 88162 88161 88160 88158 88157 88156 88155 88154 88153 88152 88151 88150 88149 88148 88147 88145 88144 88142 88141 88140 88139 88138 88136 88135 88134 88133 88131 88130 88129 88128 88125 88124 88123 88122 88121 88119 88118 88117 88116 88115 88114 88112 88110 88108 88107 88105 88103 88102 88101 88100 88099 88098 88097 88096 88095 88092 88091 88090 88089 88087 88086 88085 88084 88082 88080 88078 88076 88075 88074 88072 88071 88067 88066 88064 88062 88061 88060 88059 88057 88056 88055 88054 88053 88051 88049 88048 88044 88043 88041 88038 88036 88032 88031 88030 88028 88027 88025 88024 88023 88022 88020 88019 88016 88015 88014 88013 88012 88011 88010 88009 88006 88005 88003 88002 88001 88000 87996 87995 87994 87993 87991 87987 87986 87983 87981 87979 87978 87977 87975 87974 87972 87971 87967 87966 87965 87964 87963 87960 87959 87957 87954 87953 87952 87951 87949 87948 87947 87946 87944 87943 87942 87941 87940 87939 87938 87935 87934 87931 87930 87929 87928 87927 87925 87923 87921 87918 87917 87916 87914 87913 87912 87911 87910 87908 87907 87906 87905 87902 87900 87899 87898 87897 87894 87893 87891 87890 87888 87887 87886 87885 87884 87883 87882 87879 87878 87877 87874 87873 87870 87869 87868 87866 87865 87864 87863 87861 87860 87859 87858 87857 87856 87855 87854 87853 87852 87851 87850 87849 87848 87847 87845 87844 87842 87839 87836 87835 87833 87831 87830 87829 87826 87824 87822 87820 87818 87817 87816 87815 87814 87812 87811 87810 87808 87806 87805 87802 87800 87798 87797 87796 87794 87791 87790 87788 87787 87786 87782 87781 87779 87778 87777 87776 87775 87774 87772 87771 87770 87767 87766 87763 87762 87760 87758 87757 87756 87753 87752 87751 87750 87748 87747 87746 87745 87743 87741 87738 87737 87736 87735 87734 87732 87731 87729 87728 87727 87726 87724 87721 87717 87716 87715 87712 87709 87708 87707 87706 87705 87704 87703 87702 87700 87699 87697 87696 87695 87694 87693 87692 87691 87689 87688 87686 87685 87684 87683 87682 87680 87679 87678 87677 87675 87674 87671 87670 87669 87668 87667 87666 87664 87662 87660 87659 87658 87656 87654 87653 87652 87650 87647 87646 87644 87643 87642 87641 87639 87638 87637 87636 87635 87633 87631 87630 87627 87626 87625 87624 87623 87622 87619 87618 87617 87616 87614 87612 87609 87608 87606 87605 87604 87603 87602 87601 87600 87597 87596 87595 87594 87593 87589 87588 87587 87584 87583 87582 87581 87578 87577 87576 87575 87574 87573 87572 87569 87565 87564 87563 87561 87560 87559 87558 87557 87556 87555 87554 87553 87552 87551 87550 87549 87547 87545 87541 87540 87539 87538 87537 87535 87534 87531 87530 87529 87527 87526 87524 87523 87520 87519 87517 87516 87515 87513 87512 87511 87510 87509 87508 87507 87502 87499 87498 87496 87495 87493 87492 87491 87490 87488 87487 87486 87485 87484 87483 87482 87481 87480 87478 87477 87476 87473 87472 87471 87470 87469 87468 87467 87466 87465 87464 87463 87462 87460 87459 87457 87456 87455 87454 87452 87451 87450 87449 87448 87447 87444 87443 87441 87440 87439 87438 87436 87435 87433 87432 87431 87430 87429 87427 87425 87424 87423 87421 87419 87418 87417 87415 87414 87413 87412 87411 87409 87408 87406 87405 87403 87402 87399 87394 87393 87390 87389 87386 87385 87384 87383 87380 87379 87378 87377 87376 87375 87374 87372 87371 87370 87369 87365 87363 87361 87359 87358 87357 87356 87355 87354 87353 87349 87348 87347 87346 87345 87344 87342 87341 87339 87337 87336 87335 87333 87331 87330 87329 87328 87325 87324 87323 87321 87320 87318 87316 87314 87312 87311 87310 87308 87307 87305 87304 87303 87302 87301 87299 87298 87296 87295 87293 87292 87291 87290 87289 87287 87286 87285 87283 87280 87279 87278 87277 87275 87274 87272 87269 87268 87267 87266 87265 87264 87263 87262 87261 87260 87258 87257 87255 87254 87252 87251 87250 87249 87248 87246 87244 87243 87241 87240 87238 87237 87236 87235 87233 87232 87231 87230 87226 87224 87223 87221 87220 87219 87218 87217 87216 87215 87213 87212 87211 87210 87209 87208 87206 87204 87203 87202 87201 87199 87198 87196 87194 87192 87191 87190 87189 87187 87186 87184 87183 87182 87181 87178 87177 87176 87174 87173 87172 87171 87170 87166 87165 87164 87162 87161 87160 87157 87156 87155 87153 87152 87149 87147 87144 87143 87142 87139 87137 87136 87133 87130 87126 87125 87124 87122 87119 87118 87117 87116 87114 87113 87111 87110 87108 87107 87106 87105 87104 87101 87100 87099 87098 87096 87095 87093 87091 87089 87088 87086 87085 87083 87082 87081 87080 87079 87078 87076 87073 87072 87071 87069 87068 87066 87065 87064 87061 87060 87059 87058 87057 87056 87055 87054 87051 87049 87048 87047 87044 87043 87042 87041 87040 87039 87038 87036 87035 87034 87033 87031 87029 87028 87027 87026 87023 87022 87021 87020 87019 87018 87017 87016 87015 87013 87012 87011 87010 87009 87008 87006 87005 87004 87003 87001 87000 86998 86997 86994 86993 86992 86991 86989 86988 86987 86986 86985 86984 86983 86982 86981 86979 86976 86974 86972 86970 86968 86967 86966 86964 86963 86961 86958 86957 86956 86954 86953 86952 86951 86950 86949 86948 86947 86946 86945 86944 86943 86942 86941 86940 86939 86938 86937 86936 86935 86934 86930 86928 86925 86924 86921 86919 86918 86917 86915 86914 86912 86911 86910 86909 86908 86907 86906 86905 86903 86902 86901 86898 86896 86895 86894 86891 86888 86885 86883 86882 86881 86880 86878 86876 86875 86874 86872 86870 86868 86867 86865 86861 86859 86858 86857 86856 86854 86853 86852 86851 86850 86849 86848 86847 86846 86845 86844 86843 86842 86841 86838 86836 86835 86834 86832 86830 86827 86826 86823 86822 86817 86816 86815 86814 86813 86812 86811 86810 86808 86807 86806 86804 86803 86802 86800 86798 86797 86796 86795 86792 86790 86789 86788 86785 86782 86781 86780 86779 86778 86777 86776 86774 86773 86772 86770 86768 86766 86764 86762 86761 86760 86759 86758 86757 86756 86755 86753 86751 86750 86749 86748 86746 86745 86743 86742 86741 86740 86739 86738 86737 86736 86735 86734 86733 86732 86731 86730 86729 86728 86724 86723 86722 86721 86720 86719 86716 86715 86713 86712 86711 86710 86709 86707 86706 86705 86704 86703 86702 86701 86700 86697 86696 86695 86694 86692 86691 86690 86687 86686 86684 86683 86680 86679 86678 86677 86676 86674 86672 86671 86670 86669 86668 86666 86663 86661 86660 86659 86658 86655 86653 86652 86647 86645 86644 86643 86642 86640 86639 86638 86635 86633 86632 86631 86630 86629 86627 86626 86622 86620 86618 86617 86616 86615 86614 86613 86612 86611 86608 86606 86605 86603 86602 86601 86600 86599 86598 86597 86593 86592 86591 86589 86587 86586 86585 86584 86581 86580 86579 86575 86574 86573 86572 86571 86570 86569 86568 86567 86566 86565 86564 86563 86562 86561 86560 86558 86557 86556 86554 86553 86551 86550 86549 86548 86546 86543 86542 86540 86539 86538 86537 86536 86535 86532 86531 86530 86529 86528 86527 86525 86524 86522 86521 86517 86516 86515 86514 86512 86511 86508 86507 86506 86504 86503 86502 86500 86498 86497 86496 86495 86492 86491 86490 86489 86488 86487 86486 86484 86483 86482 86481 86478 86477 86475 86474 86473 86470 86469 86468 86466 86465 86464 86462 86461 86460 86458 86457 86456 86455 86454 86453 86452 86451 86450 86449 86447 86443 86441 86440 86438 86437 86436 86430 86427 86426 86425 86423 86422 86421 86420 86417 86416 86415 86414 86412 86410 86409 86408 86407 86406 86405 86404 86403 86402 86401 86400 86399 86398 86396 86395 86393 86392 86391 86390 86389 86388 86385 86384 86382 86380 86379 86378 86377 86375 86373 86372 86371 86370 86369 86367 86366 86365 86364 86362 86360 86359 86357 86356 86355 86354 86353 86352 86350 86348 86347 86346 86345 86343 86342 86340 86338 86336 86335 86331 86330 86329 86327 86326 86325 86324 86323 86322 86320 86319 86318 86317 86316 86314 86313 86312 86311 86310 86308 86307 86306 86305 86303 86302 86300 86299 86298 86296 86295 86294 86291 86290 86288 86287 86286 86284 86282 86278 86277 86276 86275 86273 86270 86269 86266 86264 86260 86259 86258 86257 86256 86255 86254 86253 86252 86250 86249 86246 86244 86243 86242 86241 86240 86238 86237 86236 86235 86234 86233 86232 86231 86229 86228 86227 86226 86225 86224 86223 86222 86221 86219 86218 86217 86216 86215 86214 86212 86211 86210 86208 86207 86205 86203 86199 86196 86194 86193 86192 86190 86188 86187 86186 86182 86179 86178 86177 86176 86175 86174 86173 86172 86171 86169 86168 86167 86166 86165 86164 86162 86161 86160 86159 86158 86156 86151 86150 86146 86145 86144 86143 86141 86140 86139 86138 86137 86136 86135 86134 86133 86131 86129 86127 86126 86124 86122 86120 86117 86115 86114 86113 86112 86111 86110 86108 86107 86106 86105 86103 86100 86099 86098 86097 86096 86095 86094 86092 86091 86090 86088 86086 86083 86082 86081 86080 86079 86077 86076 86075 86074 86073 86072 86071 86070 86069 86068 86066 86065 86062 86060 86059 86057 86056 86053 86052 86050 86048 86047 86044 86043 86042 86041 86040 86039 86038 86037 86036 86035 86033 86032 86031 86029 86027 86025 86024 86023 86022 86021 86020 86019 86016 86015 86013 86012 86011 86010 86009 86008 86007 86006 86004 86003 86002 86001 86000 85999 85998 85997 85995 85994 85993 85992 85989 85988 85987 85986 85985 85983 85982 85981 85978 85977 85976 85974 85973 85972 85971 85970 85969 85968 85967 85966 85962 85960 85958 85957 85955 85953 85952 85951 85950 85947 85946 85939 85938 85936 85935 85934 85933 85932 85931 85930 85929 85928 85927 85926 85925 85924 85923 85921 85920 85917 85915 85914 85913 85912 85911 85910 85908 85907 85906 85905 85901 85899 85898 85897 85896 85894 85893 85892 85891 85890 85888 85887 85885 85884 85883 85881 85880 85879 85878 85875 85872 85869 85867 85865 85863 85862 85861 85860 85859 85857 85856 85855 85854 85853 85852 85847 85845 85844 85842 85841 85840 85839 85838 85835 85834 85833 85829 85828 85827 85824 85822 85819 85818 85817 85816 85815 85814 85812 85810 85809 85808 85805 85804 85802 85801 85800 85799 85797 85795 85794 85793 85792 85791 85790 85789 85788 85787 85786 85785 85784 85783 85782 85779 85778 85777 85776 85773 85772 85770 85769 85768 85767 85762 85761 85759 85758 85757 85756 85755 85754 85752 85751 85750 85748 85747 85746 85745 85744 85743 85739 85738 85737 85736 85733 85731 85730 85728 85724 85722 85721 85720 85719 85718 85716 85715 85713 85711 85710 85709 85706 85704 85703 85701 85700 85699 85698 85697 85695 85694 85693 85692 85691 85690 85688 85685 85683 85681 85680 85679 85677 85676 85675 85673 85672 85671 85669 85667 85662 85661 85660 85657 85655 85653 85651 85650 85649 85648 85647 85646 85644 85643 85642 85641 85640 85639 85637 85636 85635 85634 85633 85632 85631 85629 85627 85626 85625 85624 85623 85622 85616 85611 85610 85609 85608 85607 85606 85605 85604 85603 85599 85598 85597 85596 85595 85594 85593 85591 85589 85587 85585 85584 85581 85580 85579 85577 85576 85574 85573 85572 85571 85569 85568 85567 85562 85561 85560 85559 85555 85554 85553 85552 85551 85550 85549 85548 85547 85542 85541 85540 85539 85538 85536 85534 85532 85530 85529 85526 85525 85524 85523 85522 85520 85519 85517 85515 85514 85513 85511 85508 85507 85506 85505 85504 85503 85502 85501 85500 85499 85498 85497 85496 85495 85494 85491 85487 85484 85480 85478 85476 85475 85474 85472 85468 85467 85466 85465 85463 85462 85461 85459 85458 85456 85454 85453 85452 85451 85450 85447 85446 85445 85444 85442 85440 85439 85438 85437 85436 85435 85434 85433 85432 85431 85430 85429 85427 85426 85425 85422 85421 85420 85419 85418 85417 85416 85415 85413 85412 85411 85410 85408 85405 85404 85402 85401 85399 85398 85393 85392 85391 85390 85389 85388 85387 85384 85383 85382 85381 85380 85379 85378 85377 85376 85374 85373 85370 85369 85367 85366 85363 85362 85361 85360 85359 85358 85357 85356 85355 85354 85353 85352 85351 85350 85349 85348 85346 85345 85344 85343 85342 85340 85338 85335 85334 85331 85330 85327 85325 85322 85321 85320 85319 85317 85316 85315 85314 85312 85311 85310 85309 85308 85306 85304 85303 85301 85298 85294 85293 85292 85291 85290 85289 85287 85283 85281 85278 85277 85276 85274 85273 85270 85268 85267 85265 85263 85260 85257 85256 85255 85253 85252 85250 85249 85248 85247 85245 85244 85242 85241 85240 85239 85238 85236 85235 85233 85232 85231 85230 85228 85227 85226 85225 85222 85221 85219 85218 85217 85216 85214 85211 85210 85207 85205 85203 85202 85201 85200 85197 85196 85195 85193 85192 85191 85189 85187 85186 85184 85183 85182 85181 85180 85178 85177 85176 85175 85174 85173 85172 85171 85170 85167 85164 85163 85162 85160 85159 85158 85156 85155 85154 85153 85152 85151 85147 85144 85143 85142 85141 85140 85137 85133 85132 85129 85128 85125 85124 85123 85122 85121 85119 85118 85117 85115 85113 85112 85111 85109 85108 85106 85104 85101 85100 85098 85096 85095 85094 85093 85091 85090 85089 85088 85087 85086 85084 85083 85082 85081 85080 85078 85077 85076 85075 85074 85073 85072 85069 85064 85063 85061 85060 85058 85056 85054 85053 85051 85046 85045 85044 85043 85042 85039 85037 85035 85033 85032 85030 85029 85028 85027 85026 85025 85023 85022 85018 85016 85015 85014 85013 85007 85005 85004 85001 85000 84999 84998 84997 84994 84993 84991 84989 84987 84986 84985 84984 84983 84980 84979 84978 84976 84975 84974 84972 84970 84968 84967 84966 84965 84964 84962 84961 84960 84958 84956 84955 84953 84952 84951 84950 84949 84948 84946 84944 84943 84941 84940 84939 84938 84937 84936 84935 84934 84933 84932 84929 84926 84925 84923 84922 84921 84918 84917 84915 84914 84913 84912 84911 84910 84909 84908 84907 84906 84904 84902 84901 84898 84896 84895 84894 84891 84890 84889 84886 84885 84884 84882 84880 84879 84878 84877 84876 84872 84871 84870 84869 84868 84866 84864 84863 84861 84860 84859 84858 84856 84855 84853 84852 84850 84849 84848 84847 84846 84845 84843 84841 84840 84839 84838 84837 84836 84833 84832 84831 84830 84828 84827 84825 84823 84821 84818 84817 84816 84814 84811 84806 84805 84804 84803 84801 84800 84799 84797 84796 84794 84792 84790 84789 84787 84786 84785 84784 84783 84782 84781 84780 84778 84777 84776 84774 84769 84768 84767 84766 84765 84764 84762 84761 84760 84759 84758 84757 84756 84753 84749 84748 84747 84745 84744 84742 84741 84740 84739 84738 84736 84735 84733 84732 84730 84729 84726 84725 84724 84722 84721 84720 84718 84717 84714 84713 84711 84710 84707 84706 84705 84701 84700 84698 84697 84695 84693 84688 84687 84686 84685 84683 84682 84680 84678 84677 84675 84674 84673 84672 84670 84668 84667 84665 84664 84663 84662 84661 84660 84659 84658 84657 84656 84655 84653 84652 84651 84650 84648 84647 84646 84645 84642 84639 84638 84637 84636 84635 84634 84632 84631 84630 84628 84626 84623 84620 84619 84616 84615 84613 84611 84608 84607 84606 84605 84602 84601 84600 84598 84597 84594 84593 84589 84587 84586 84585 84583 84582 84581 84579 84577 84575 84574 84573 84572 84570 84569 84568 84567 84566 84564 84560 84558 84557 84555 84553 84552 84551 84549 84548 84547 84545 84540 84539 84535 84533 84532 84531 84530 84529 84527 84526 84524 84520 84519 84518 84517 84516 84514 84513 84510 84507 84506 84505 84502 84501 84500 84499 84496 84494 84493 84492 84491 84490 84489 84487 84485 84484 84482 84478 84477 84476 84475 84474 84472 84471 84470 84469 84468 84466 84465 84464 84462 84461 84458 84457 84456 84455 84454 84450 84446 84445 84443 84442 84440 84439 84438 84436 84434 84432 84431 84428 84426 84425 84423 84421 84420 84419 84417 84415 84414 84413 84411 84410 84409 84408 84407 84404 84403 84402 84399 84397 84396 84395 84393 84391 84390 84388 84387 84384 84383 84378 84376 84374 84373 84372 84371 84370 84369 84368 84367 84366 84365 84364 84362 84361 84360 84359 84357 84355 84354 84352 84351 84350 84349 84347 84346 84345 84344 84343 84340 84338 84336 84334 84332 84331 84329 84328 84327 84326 84324 84323 84322 84321 84318 84316 84315 84314 84313 84312 84311 84308 84307 84306 84304 84303 84302 84301 84299 84297 84291 84290 84288 84286 84285 84284 84283 84282 84281 84279 84277 84275 84273 84272 84271 84270 84265 84264 84263 84262 84261 84260 84259 84257 84255 84254 84252 84251 84250 84249 84248 84245 84244 84243 84242 84241 84240 84239 84238 84236 84235 84234 84233 84232 84231 84230 84229 84227 84225 84224 84223 84222 84221 84220 84219 84218 84217 84216 84215 84214 84213 84211 84209 84208 84207 84206 84205 84204 84203 84201 84200 84197 84195 84193 84192 84191 84190 84189 84188 84187 84186 84185 84184 84183 84180 84179 84177 84176 84171 84168 84166 84164 84163 84161 84160 84157 84154 84152 84151 84150 84147 84146 84145 84144 84142 84140 84139 84137 84136 84135 84134 84131 84130 84129 84128 84127 84126 84125 84124 84122 84121 84119 84118 84117 84115 84112 84111 84110 84107 84106 84105 84102 84100 84099 84098 84097 84096 84091 84090 84089 84088 84087 84085 84084 84083 84082 84081 84078 84075 84074 84073 84070 84069 84068 84067 84066 84065 84064 84063 84062 84059 84058 84056 84055 84054 84052 84051 84048 84046 84043 84042 84040 84039 84038 84037 84036 84035 84034 84033 84030 84029 84028 84027 84026 84024 84020 84019 84017 84016 84014 84013 84011 84010 84009 84008 84006 84005 84004 84003 84002 84001 83999 83994 83993 83992 83991 83990 83989 83985 83983 83982 83981 83980 83979 83978 83977 83976 83974 83972 83971 83969 83966 83964 83961 83959 83958 83957 83956 83955 83954 83953 83951 83950 83949 83948 83947 83946 83945 83943 83942 83941 83940 83938 83937 83936 83934 83933 83931 83929 83928 83925 83924 83921 83920 83919 83918 83916 83915 83914 83913 83912 83911 83910 83907 83906 83905 83904 83903 83902 83898 83897 83895 83894 83893 83892 83890 83889 83888 83886 83885 83884 83882 83880 83878 83877 83876 83874 83873 83870 83869 83867 83866 83865 83864 83862 83860 83858 83857 83855 83854 83853 83851 83848 83846 83845 83844 83842 83840 83839 83837 83836 83835 83834 83833 83832 83830 83829 83828 83826 83825 83824 83823 83821 83820 83819 83818 83815 83814 83812 83811 83810 83808 83807 83806 83805 83804 83801 83800 83799 83798 83797 83796 83792 83791 83790 83788 83785 83784 83783 83782 83781 83780 83779 83777 83775 83773 83772 83771 83769 83766 83765 83762 83761 83758 83757 83756 83752 83750 83749 83748 83747 83746 83744 83743 83742 83741 83740 83738 83735 83733 83732 83731 83728 83726 83725 83724 83722 83721 83719 83718 83716 83714 83713 83711 83710 83709 83708 83706 83705 83704 83701 83700 83695 83694 83693 83692 83691 83689 83688 83687 83686 83685 83684 83683 83682 83681 83679 83678 83677 83676 83673 83671 83669 83668 83667 83665 83663 83662 83661 83660 83659 83658 83656 83655 83654 83651 83649 83647 83646 83644 83643 83642 83641 83637 83636 83635 83634 83631 83630 83629 83628 83627 83626 83624 83623 83622 83620 83619 83618 83617 83616 83615 83613 83611 83610 83609 83608 83607 83606 83603 83601 83600 83599 83597 83596 83593 83592 83591 83589 83588 83587 83586 83585 83583 83582 83581 83580 83579 83578 83577 83576 83573 83571 83570 83569 83568 83567 83564 83563 83561 83560 83559 83557 83556 83554 83553 83550 83548 83546 83545 83544 83543 83540 83538 83537 83536 83533 83531 83530 83528 83527 83526 83523 83520 83519 83518 83517 83515 83513 83512 83511 83509 83508 83506 83504 83503 83502 83499 83498 83497 83496 83495 83493 83492 83491 83490 83489 83486 83485 83484 83483 83478 83476 83473 83472 83471 83470 83469 83468 83467 83466 83463 83462 83460 83457 83455 83454 83453 83452 83451 83450 83449 83447 83446 83442 83441 83439 83438 83435 83434 83433 83431 83430 83429 83428 83427 83426 83425 83424 83423 83422 83421 83420 83418 83417 83416 83414 83413 83411 83410 83407 83404 83402 83401 83400 83399 83398 83397 83395 83394 83393 83391 83390 83387 83386 83385 83384 83382 83381 83380 83379 83378 83377 83376 83374 83372 83370 83369 83368 83367 83365 83363 83361 83360 83359 83357 83355 83354 83353 83352 83349 83347 83346 83345 83344 83343 83342 83341 83340 83339 83338 83337 83336 83332 83330 83328 83326 83325 83324 83322 83321 83320 83318 83317 83316 83312 83311 83310 83308 83307 83306 83304 83303 83302 83301 83299 83298 83297 83296 83295 83294 83293 83291 83290 83289 83287 83286 83285 83283 83282 83281 83280 83279 83278 83275 83274 83273 83272 83270 83269 83267 83266 83265 83263 83260 83259 83258 83257 83255 83254 83253 83252 83251 83249 83248 83247 83246 83244 83242 83241 83240 83239 83238 83236 83235 83234 83232 83230 83225 83224 83222 83219 83218 83215 83214 83212 83209 83207 83206 83205 83204 83202 83201 83200 83199 83198 83197 83194 83193 83192 83191 83190 83187 83186 83184 83183 83181 83180 83179 83178 83176 83175 83174 83173 83170 83168 83166 83164 83162 83160 83159 83157 83156 83152 83151 83149 83147 83146 83145 83143 83142 83141 83139 83138 83137 83136 83135 83134 83133 83131 83130 83129 83128 83126 83125 83124 83122 83120 83119 83116 83114 83112 83111 83110 83108 83107 83106 83105 83103 83100 83098 83097 83096 83093 83092 83091 83090 83087 83086 83084 83083 83082 83080 83079 83078 83077 83076 83075 83074 83072 83071 83070 83068 83067 83066 83065 83064 83063 83062 83059 83058 83056 83054 83052 83051 83050 83045 83043 83042 83041 83040 83036 83034 83033 83032 83030 83029 83028 83025 83024 83023 83020 83019 83018 83017 83015 83013 83012 83011 83010 83008 83007 83006 83005 83004 83003 83002 83001 83000 82998 82997 82995 82994 82993 82991 82990 82989 82988 82985 82984 82983 82982 82980 82979 82974 82973 82972 82969 82968 82967 82966 82965 82964 82963 82962 82960 82959 82958 82957 82956 82955 82953 82952 82951 82949 82946 82945 82943 82942 82941 82939 82937 82935 82934 82933 82932 82931 82930 82929 82928 82927 82925 82924 82923 82922 82919 82918 82917 82915 82914 82913 82911 82909 82907 82906 82905 82903 82902 82899 82898 82896 82895 82894 82893 82892 82891 82890 82889 82887 82885 82882 82881 82879 82876 82875 82874 82873 82872 82871 82870 82869 82868 82867 82866 82864 82863 82860 82859 82858 82857 82854 82853 82852 82851 82850 82849 82848 82845 82843 82842 82840 82839 82838 82837 82836 82835 82833 82832 82831 82827 82825 82824 82823 82822 82821 82820 82819 82816 82815 82813 82812 82811 82808 82807 82806 82805 82804 82803 82802 82801 82799 82798 82797 82796 82795 82794 82793 82792 82791 82790 82789 82788 82786 82784 82783 82779 82777 82776 82775 82774 82772 82771 82770 82769 82768 82767 82766 82762 82759 82757 82756 82755 82754 82752 82751 82749 82747 82744 82742 82741 82739 82737 82736 82735 82734 82733 82732 82731 82729 82728 82727 82725 82724 82723 82722 82721 82719 82718 82717 82716 82715 82714 82712 82709 82708 82706 82705 82703 82702 82701 82699 82698 82697 82695 82693 82692 82689 82688 82686 82683 82682 82681 82680 82677 82675 82674 82670 82669 82668 82666 82665 82664 82663 82660 82659 82658 82657 82656 82654 82653 82652 82651 82649 82648 82646 82645 82644 82643 82642 82641 82640 82639 82637 82634 82632 82630 82629 82628 82627 82626 82625 82624 82622 82621 82620 82615 82614 82611 82609 82604 82601 82600 82598 82596 82595 82594 82593 82592 82591 82590 82587 82586 82585 82583 82578 82577 82576 82574 82570 82568 82567 82566 82565 82564 82562 82561 82560 82559 82558 82557 82556 82552 82549 82548 82547 82546 82545 82544 82540 82539 82538 82537 82536 82535 82534 82533 82531 82529 82527 82526 82524 82522 82521 82518 82516 82513 82512 82511 82509 82507 82506 82505 82504 82499 82498 82497 82496 82495 82492 82490 82488 82487 82486 82485 82483 82482 82481 82480 82478 82477 82475 82473 82472 82471 82469 82466 82464 82463 82461 82460 82458 82456 82455 82454 82451 82450 82444 82443 82442 82440 82439 82438 82437 82436 82435 82432 82431 82429 82428 82427 82425 82423 82422 82421 82420 82419 82416 82415 82414 82413 82412 82411 82410 82409 82407 82406 82405 82404 82403 82402 82401 82399 82397 82395 82393 82392 82390 82389 82388 82387 82386 82384 82383 82382 82380 82378 82377 82374 82373 82371 82368 82367 82366 82365 82363 82362 82359 82357 82355 82354 82353 82352 82351 82350 82349 82348 82347 82346 82345 82344 82343 82342 82339 82338 82336 82335 82334 82333 82332 82331 82330 82329 82328 82326 82321 82320 82318 82317 82315 82314 82313 82312 82311 82307 82304 82303 82302 82300 82299 82296 82294 82292 82291 82290 82289 82288 82287 82285 82283 82282 82280 82277 82276 82274 82273 82271 82270 82269 82268 82267 82266 82265 82264 82263 82262 82259 82258 82256 82255 82254 82253 82252 82251 82248 82247 82246 82244 82243 82241 82239 82238 82235 82234 82233 82231 82230 82229 82228 82227 82225 82224 82222 82221 82217 82213 82212 82211 82210 82206 82202 82200 82197 82196 82195 82194 82193 82192 82190 82189 82188 82187 82186 82183 82182 82180 82178 82175 82173 82172 82171 82170 82169 82166 82165 82164 82163 82162 82161 82159 82158 82157 82156 82155 82154 82153 82152 82151 82150 82149 82147 82146 82145 82144 82143 82141 82139 82138 82137 82136 82135 82134 82133 82132 82130 82128 82126 82125 82122 82121 82120 82119 82118 82115 82114 82113 82112 82111 82110 82109 82108 82107 82106 82105 82103 82102 82101 82099 82097 82096 82095 82093 82092 82090 82088 82086 82085 82084 82083 82082 82080 82078 82076 82075 82074 82072 82071 82070 82069 82068 82063 82062 82061 82060 82058 82057 82056 82053 82052 82051 82050 82047 82046 82045 82044 82043 82042 82041 82039 82038 82037 82036 82035 82033 82031 82029 82028 82026 82024 82023 82022 82021 82019 82018 82017 82016 82014 82013 82012 82008 82006 82005 82003 82001 81999 81994 81993 81992 81991 81990 81988 81987 81986 81985 81984 81980 81979 81977 81976 81975 81974 81973 81972 81968 81967 81964 81962 81961 81960 81959 81958 81957 81956 81953 81952 81951 81950 81948 81947 81946 81945 81941 81940 81939 81938 81937 81935 81934 81933 81932 81929 81928 81925 81924 81923 81922 81920 81919 81916 81915 81914 81913 81912 81911 81910 81908 81906 81905 81904 81903 81902 81901 81900 81897 81896 81895 81890 81889 81886 81883 81882 81881 81878 81877 81876 81872 81870 81868 81867 81866 81865 81864 81860 81859 81858 81857 81856 81855 81854 81853 81852 81847 81846 81845 81844 81843 81842 81841 81839 81838 81836 81833 81830 81829 81828 81826 81823 81822 81821 81819 81818 81817 81815 81810 81809 81808 81807 81806 81805 81804 81803 81800 81799 81798 81797 81796 81795 81792 81791 81788 81787 81786 81784 81783 81782 81781 81780 81779 81778 81776 81775 81774 81773 81772 81771 81770 81769 81768 81767 81765 81764 81762 81761 81760 81759 81758 81755 81754 81750 81749 81747 81746 81745 81744 81743 81740 81739 81736 81735 81733 81732 81731 81729 81728 81726 81725 81724 81723 81722 81718 81717 81716 81715 81713 81711 81710 81709 81708 81707 81706 81705 81702 81701 81699 81698 81697 81696 81695 81693 81692 81691 81688 81687 81686 81685 81684 81683 81681 81680 81679 81678 81677 81676 81675 81674 81673 81672 81670 81669 81668 81667 81666 81663 81661 81658 81657 81655 81652 81649 81648 81646 81643 81642 81640 81639 81638 81637 81635 81634 81632 81631 81629 81626 81625 81623 81622 81621 81618 81617 81614 81613 81611 81610 81609 81608 81607 81606 81605 81604 81603 81602 81601 81600 81599 81598 81594 81593 81592 81590 81589 81588 81587 81586 81585 81582 81581 81580 81579 81578 81577 81574 81573 81571 81567 81566 81565 81564 81563 81561 81558 81556 81555 81549 81546 81545 81544 81543 81542 81541 81540 81539 81538 81537 81536 81535 81531 81530 81529 81527 81526 81524 81523 81521 81520 81519 81516 81515 81514 81513 81512 81510 81509 81508 81507 81506 81505 81504 81503 81501 81498 81497 81495 81494 81493 81492 81490 81489 81488 81485 81484 81483 81482 81480 81479 81477 81476 81474 81472 81466 81463 81461 81459 81458 81457 81455 81454 81453 81451 81450 81449 81445 81444 81443 81441 81440 81439 81438 81437 81435 81434 81433 81432 81430 81429 81427 81425 81424 81422 81421 81419 81417 81416 81415 81413 81411 81410 81408 81407 81406 81405 81404 81402 81400 81399 81397 81396 81395 81394 81391 81390 81389 81388 81387 81386 81385 81384 81383 81382 81381 81380 81377 81376 81375 81374 81373 81372 81371 81369 81368 81367 81366 81365 81362 81361 81360 81359 81358 81357 81354 81352 81351 81349 81348 81347 81346 81344 81343 81340 81338 81337 81336 81335 81334 81333 81331 81330 81329 81328 81327 81326 81325 81324 81323 81321 81319 81316 81315 81313 81312 81310 81308 81306 81303 81302 81299 81298 81297 81294 81293 81292 81291 81290 81289 81288 81287 81286 81285 81284 81283 81281 81279 81278 81277 81276 81275 81272 81270 81269 81267 81266 81265 81264 81262 81261 81259 81258 81257 81256 81255 81252 81251 81250 81248 81247 81246 81244 81240 81239 81238 81236 81235 81234 81231 81230 81229 81227 81225 81224 81222 81221 81217 81216 81215 81214 81213 81212 81211 81209 81208 81207 81205 81204 81203 81202 81201 81200 81198 81196 81195 81194 81193 81191 81190 81187 81186 81185 81184 81183 81182 81181 81179 81178 81177 81176 81175 81174 81173 81171 81170 81169 81167 81166 81165 81164 81163 81162 81161 81160 81157 81154 81153 81152 81151 81150 81149 81148 81147 81143 81142 81139 81138 81136 81135 81133 81131 81129 81128 81127 81125 81124 81122 81121 81120 81119 81118 81116 81115 81114 81112 81111 81110 81108 81107 81106 81102 81100 81099 81098 81097 81096 81095 81094 81092 81091 81088 81087 81086 81085 81083 81082 81081 81080 81078 81076 81074 81073 81071 81070 81069 81068 81067 81066 81065 81064 81063 81062 81060 81058 81057 81054 81053 81052 81051 81047 81045 81042 81041 81040 81039 81037 81036 81035 81034 81033 81032 81031 81030 81029 81028 81023 81022 81021 81019 81017 81014 81010 81009 81008 81006 81003 81002 81001 80999 80998 80995 80994 80993 80992 80991 80990 80988 80987 80986 80985 80984 80983 80982 80981 80979 80976 80975 80973 80972 80971 80970 80969 80967 80964 80963 80962 80959 80958 80957 80956 80953 80949 80947 80944 80942 80941 80940 80939 80938 80935 80934 80930 80927 80925 80924 80923 80920 80919 80913 80911 80910 80908 80905 80903 80901 80900 80897 80893 80892 80891 80888 80887 80886 80881 80880 80879 80878 80876 80875 80874 80873 80872 80870 80869 80867 80865 80863 80861 80860 80859 80858 80857 80854 80851 80850 80849 80848 80847 80845 80844 80843 80842 80839 80838 80837 80834 80833 80831 80830 80829 80828 80826 80825 80824 80823 80819 80817 80816 80815 80814 80813 80812 80809 80808 80807 80802 80801 80798 80795 80794 80793 80792 80791 80790 80787 80785 80784 80783 80782 80781 80779 80778 80777 80776 80775 80774 80772 80771 80770 80769 80768 80765 80762 80761 80758 80757 80756 80755 80753 80750 80749 80748 80744 80743 80742 80740 80739 80738 80736 80731 80730 80729 80726 80725 80724 80723 80722 80720 80718 80717 80713 80712 80711 80707 80705 80704 80703 80702 80700 80699 80698 80697 80696 80694 80693 80692 80691 80690 80687 80686 80684 80683 80682 80681 80680 80679 80678 80677 80676 80674 80673 80672 80670 80667 80666 80664 80663 80662 80661 80659 80656 80653 80652 80649 80647 80646 80645 80644 80643 80642 80641 80639 80638 80637 80636 80635 80634 80632 80631 80625 80624 80623 80621 80618 80617 80616 80615 80614 80613 80611 80610 80609 80608 80607 80606 80605 80604 80603 80600 80598 80596 80595 80594 80591 80590 80589 80587 80586 80584 80583 80580 80578 80577 80576 80575 80574 80569 80567 80566 80565 80564 80563 80560 80556 80555 80554 80553 80548 80546 80545 80543 80542 80541 80540 80539 80538 80537 80530 80529 80527 80526 80524 80520 80519 80518 80517 80516 80514 80511 80510 80508 80504 80503 80502 80501 80499 80498 80497 80496 80493 80490 80489 80488 80487 80486 80485 80482 80481 80480 80477 80475 80474 80473 80472 80471 80470 80469 80468 80467 80466 80464 80463 80461 80459 80458 80457 80453 80452 80449 80448 80446 80445 80444 80443 80442 80441 80440 80439 80438 80437 80436 80433 80431 80430 80429 80428 80421 80420 80418 80416 80415 80414 80413 80412 80411 80410 80409 80408 80407 80404 80403 80399 80398 80397 80394 80393 80391 80388 80387 80386 80384 80383 80382 80381 80379 80378 80376 80375 80374 80373 80372 80371 80370 80369 80368 80367 80366 80364 80363 80362 80359 80358 80356 80355 80354 80352 80351 80350 80349 80348 80347 80346 80344 80340 80339 80338 80337 80334 80329 80326 80325 80324 80323 80321 80320 80316 80314 80313 80312 80310 80305 80304 80303 80302 80301 80300 80299 80298 80297 80296 80295 80293 80292 80291 80290 80289 80287 80286 80285 80284 80283 80281 80279 80278 80277 80275 80273 80272 80271 80270 80269 80268 80267 80265 80264 80260 80259 80258 80256 80254 80253 80252 80251 80250 80248 80247 80246 80245 80244 80243 80242 80240 80236 80234 80232 80231 80230 80228 80227 80225 80223 80222 80218 80216 80215 80214 80213 80211 80210 80208 80207 80206 80205 80204 80202 80200 80199 80198 80196 80189 80187 80185 80184 80180 80179 80178 80177 80175 80173 80172 80171 80166 80160 80159 80158 80156 80155 80154 80153 80152 80150 80149 80148 80146 80143 80142 80140 80139 80138 80137 80136 80135 80134 80133 80132 80131 80130 80129 80128 80126 80125 80124 80123 80122 80121 80118 80117 80116 80115 80114 80113 80110 80109 80108 80105 80104 80103 80102 80100 80099 80098 80097 80096 80095 80093 80092 80091 80090 80089 80088 80087 80085 80084 80082 80081 80080 80079 80078 80077 80076 80073 80071 80070 80069 80068 80065 80064 80062 80061 80060 80059 80058 80056 80055 80054 80053 80052 80049 80048 80047 80046 80045 80042 80041 80040 80037 80036 80035 80034 80031 80030 80028 80026 80025 80023 80022 80021 80019 80017 80016 80015 80014 80013 80012 80011 80009 80008 80007 80006 80005 80004 80001 80000 79997 79996 79995 79994 79993 79992 79991 79989 79988 79986 79984 79983 79981 79980 79979 79978 79977 79976 79974 79973 79971 79969 79968 79967 79965 79963 79962 79960 79959 79956 79955 79954 79952 79949 79947 79946 79945 79944 79943 79942 79940 79936 79935 79934 79933 79932 79930 79928 79927 79926 79925 79924 79923 79922 79920 79919 79918 79915 79914 79912 79911 79910 79909 79906 79899 79898 79897 79893 79889 79888 79887 79886 79885 79884 79880 79878 79877 79875 79873 79872 79870 79869 79868 79867 79866 79865 79864 79863 79862 79861 79860 79859 79858 79857 79855 79854 79852 79850 79848 79846 79845 79843 79842 79841 79839 79833 79832 79831 79830 79827 79825 79824 79823 79821 79820 79817 79815 79814 79813 79812 79811 79810 79808 79806 79805 79804 79802 79801 79800 79798 79796 79795 79793 79792 79791 79790 79789 79788 79787 79786 79783 79781 79780 79779 79778 79777 79775 79773 79770 79769 79768 79765 79764 79762 79756 79755 79754 79753 79752 79750 79749 79748 79747 79746 79745 79744 79743 79741 79738 79737 79736 79735 79734 79733 79731 79730 79729 79728 79727 79726 79725 79724 79718 79717 79715 79714 79713 79712 79711 79710 79709 79708 79703 79702 79701 79700 79699 79698 79695 79692 79691 79689 79688 79687 79683 79682 79679 79678 79677 79676 79674 79673 79672 79671 79670 79669 79668 79665 79664 79659 79657 79656 79655 79654 79649 79648 79647 79646 79645 79644 79641 79640 79639 79638 79637 79636 79635 79634 79633 79632 79631 79629 79627 79626 79625 79624 79623 79622 79621 79620 79617 79616 79615 79614 79612 79611 79610 79609 79608 79606 79605 79604 79603 79600 79598 79597 79595 79594 79593 79592 79590 79589 79587 79584 79583 79580 79579 79576 79575 79574 79573 79572 79570 79568 79567 79565 79564 79563 79561 79560 79559 79558 79557 79556 79555 79553 79552 79551 79550 79549 79546 79545 79544 79543 79542 79541 79540 79539 79537 79536 79535 79534 79533 79532 79528 79527 79525 79523 79521 79519 79517 79515 79513 79512 79511 79510 79509 79507 79506 79504 79499 79498 79497 79496 79495 79494 79492 79491 79490 79489 79487 79486 79485 79484 79483 79481 79479 79478 79477 79476 79474 79472 79469 79468 79467 79466 79464 79462 79460 79459 79458 79457 79453 79452 79450 79449 79448 79445 79444 79443 79440 79439 79438 79436 79435 79434 79433 79431 79429 79428 79427 79426 79425 79420 79419 79413 79412 79411 79410 79409 79408 79407 79406 79405 79404 79403 79402 79401 79400 79399 79397 79396 79394 79392 79390 79389 79388 79387 79385 79382 79381 79380 79378 79377 79376 79375 79374 79373 79372 79369 79368 79367 79365 79361 79360 79358 79357 79355 79354 79352 79351 79350 79349 79348 79345 79343 79342 79340 79339 79337 79336 79335 79334 79332 79331 79330 79329 79328 79326 79325 79324 79323 79321 79319 79318 79317 79314 79313 79312 79311 79310 79307 79306 79301 79299 79298 79297 79296 79295 79293 79292 79291 79290 79289 79288 79287 79285 79284 79282 79281 79278 79276 79275 79274 79273 79272 79271 79270 79268 79267 79266 79264 79263 79262 79261 79259 79258 79257 79255 79254 79253 79251 79250 79249 79248 79247 79245 79244 79243 79242 79241 79240 79237 79236 79232 79229 79228 79227 79226 79225 79221 79215 79211 79209 79207 79206 79203 79202 79201 79199 79198 79197 79196 79194 79193 79190 79188 79187 79184 79183 79182 79181 79180 79179 79177 79176 79173 79170 79169 79168 79167 79164 79162 79161 79158 79153 79151 79150 79149 79148 79147 79146 79145 79144 79143 79140 79139 79137 79136 79135 79134 79132 79130 79129 79127 79126 79125 79124 79122 79121 79120 79118 79117 79113 79112 79106 79104 79103 79101 79097 79095 79094 79093 79091 79089 79088 79087 79086 79085 79084 79083 79082 79081 79080 79079 79078 79077 79076 79073 79071 79070 79069 79067 79066 79065 79064 79062 79061 79057 79053 79052 79051 79050 79046 79043 79041 79039 79037 79036 79034 79033 79032 79030 79028 79027 79026 79024 79023 79021 79020 79019 79018 79017 79016 79015 79014 79012 79011 79010 79009 79005 79003 79002 79001 78999 78998 78997 78996 78995 78994 78993 78992 78991 78990 78989 78986 78985 78984 78982 78981 78979 78978 78976 78975 78974 78972 78971 78970 78969 78968 78966 78965 78964 78961 78960 78959 78957 78956 78955 78954 78953 78952 78951 78949 78948 78947 78945 78944 78943 78941 78939 78938 78937 78936 78935 78934 78932 78931 78930 78928 78926 78925 78923 78922 78920 78919 78917 78913 78912 78911 78910 78909 78907 78906 78905 78904 78902 78901 78900 78897 78896 78895 78894 78892 78891 78890 78889 78888 78887 78886 78885 78884 78883 78881 78880 78879 78876 78875 78874 78872 78870 78868 78867 78865 78864 78863 78862 78861 78860 78859 78858 78857 78856 78855 78853 78852 78851 78850 78848 78847 78846 78845 78844 78841 78840 78839 78838 78833 78830 78828 78827 78826 78824 78823 78822 78821 78820 78818 78817 78814 78813 78812 78811 78810 78809 78808 78807 78804 78802 78801 78799 78797 78795 78793 78791 78786 78785 78780 78778 78776 78773 78770 78769 78768 78767 78764 78761 78759 78756 78755 78753 78752 78751 78749 78748 78747 78746 78744 78742 78741 78740 78739 78738 78736 78732 78731 78730 78729 78728 78727 78725 78724 78721 78720 78719 78717 78716 78714 78713 78711 78709 78706 78705 78703 78702 78701 78700 78699 78695 78691 78690 78689 78687 78685 78684 78683 78681 78680 78679 78678 78673 78672 78671 78670 78667 78664 78659 78655 78654 78653 78652 78651 78650 78649 78648 78647 78645 78643 78642 78641 78640 78638 78637 78636 78635 78634 78633 78630 78629 78628 78627 78626 78623 78622 78620 78619 78618 78617 78616 78615 78613 78612 78611 78610 78609 78608 78607 78606 78605 78604 78603 78599 78598 78596 78594 78593 78592 78587 78586 78585 78584 78582 78579 78576 78574 78573 78570 78569 78568 78567 78566 78565 78564 78561 78560 78559 78558 78557 78555 78554 78553 78552 78549 78545 78544 78542 78541 78539 78535 78534 78533 78532 78531 78530 78528 78527 78524 78521 78519 78518 78517 78516 78512 78511 78510 78509 78508 78507 78506 78504 78501 78500 78496 78494 78492 78491 78490 78489 78488 78487 78486 78485 78482 78481 78480 78479 78478 78477 78476 78475 78472 78471 78469 78467 78466 78465 78463 78460 78459 78458 78457 78456 78455 78454 78453 78451 78450 78448 78445 78444 78442 78440 78439 78438 78437 78436 78434 78432 78431 78429 78428 78426 78425 78424 78423 78422 78420 78419 78418 78417 78416 78415 78414 78412 78411 78407 78406 78405 78400 78399 78398 78397 78396 78395 78393 78392 78390 78389 78386 78384 78383 78379 78378 78376 78374 78373 78372 78371 78368 78367 78366 78364 78363 78361 78356 78355 78354 78352 78351 78350 78348 78347 78346 78345 78343 78342 78339 78336 78335 78334 78332 78331 78330 78329 78328 78324 78323 78319 78317 78315 78314 78313 78312 78311 78310 78308 78307 78305 78303 78302 78301 78299 78298 78294 78293 78291 78290 78289 78287 78286 78285 78284 78283 78282 78280 78279 78278 78276 78274 78273 78267 78266 78265 78264 78262 78261 78260 78259 78258 78256 78255 78253 78252 78251 78250 78249 78248 78246 78244 78243 78242 78241 78240 78237 78233 78232 78231 78230 78229 78226 78224 78223 78222 78221 78220 78219 78218 78217 78216 78215 78212 78211 78209 78208 78207 78206 78204 78203 78202 78201 78200 78195 78193 78190 78189 78187 78184 78183 78181 78180 78179 78178 78176 78174 78173 78172 78171 78170 78169 78168 78167 78166 78165 78163 78162 78160 78156 78155 78154 78153 78152 78151 78148 78147 78146 78145 78144 78143 78142 78141 78140 78139 78138 78137 78136 78135 78134 78132 78129 78127 78126 78125 78124 78123 78122 78120 78119 78118 78115 78111 78107 78106 78104 78103 78102 78101 78098 78096 78095 78094 78091 78090 78089 78087 78085 78083 78082 78081 78080 78079 78076 78075 78074 78073 78071 78069 78068 78067 78065 78062 78061 78060 78057 78055 78053 78052 78051 78048 78046 78043 78042 78040 78039 78038 78036 78034 78033 78030 78029 78028 78027 78026 78025 78024 78023 78021 78020 78019 78018 78017 78015 78014 78013 78012 78010 78009 78008 78006 78005 78004 78003 78002 78001 78000 77999 77995 77994 77993 77991 77990 77988 77987 77986 77984 77983 77981 77980 77979 77978 77977 77976 77975 77974 77973 77972 77969 77965 77964 77962 77960 77958 77957 77955 77954 77952 77951 77949 77948 77946 77945 77942 77941 77940 77939 77938 77937 77936 77935 77934 77931 77930 77928 77927 77926 77925 77923 77922 77917 77915 77914 77911 77908 77907 77906 77905 77903 77899 77898 77896 77895 77894 77893 77892 77891 77890 77889 77888 77887 77886 77884 77883 77882 77881 77879 77876 77875 77872 77869 77868 77867 77863 77862 77859 77857 77855 77854 77853 77848 77846 77845 77844 77843 77842 77841 77840 77839 77838 77837 77833 77832 77831 77829 77828 77827 77826 77824 77823 77822 77821 77820 77817 77815 77814 77813 77812 77811 77810 77809 77808 77805 77804 77802 77801 77800 77799 77798 77797 77795 77794 77793 77791 77790 77789 77788 77785 77781 77779 77776 77775 77774 77772 77771 77770 77769 77764 77762 77761 77760 77759 77755 77754 77753 77752 77751 77750 77749 77748 77746 77744 77742 77741 77740 77738 77737 77736 77734 77733 77732 77731 77730 77729 77728 77727 77724 77723 77722 77721 77720 77719 77718 77715 77712 77711 77710 77709 77707 77706 77705 77704 77703 77702 77701 77696 77695 77694 77692 77691 77690 77688 77687 77685 77684 77683 77680 77679 77678 77675 77674 77673 77672 77670 77668 77667 77665 77664 77662 77661 77660 77659 77658 77657 77656 77651 77650 77649 77647 77646 77645 77642 77639 77638 77636 77634 77633 77632 77631 77628 77625 77623 77622 77619 77618 77616 77615 77614 77613 77611 77610 77609 77607 77606 77605 77603 77601 77600 77599 77597 77595 77594 77592 77591 77590 77587 77586 77585 77583 77582 77581 77578 77576 77573 77572 77571 77570 77567 77564 77561 77560 77558 77557 77553 77552 77551 77550 77549 77548 77546 77545 77544 77542 77541 77538 77537 77534 77533 77531 77530 77528 77527 77526 77525 77524 77523 77522 77520 77519 77518 77517 77515 77510 77508 77506 77504 77503 77500 77499 77498 77496 77495 77494 77492 77491 77490 77488 77486 77485 77484 77483 77481 77480 77479 77478 77475 77474 77473 77472 77471 77469 77467 77466 77465 77464 77463 77462 77461 77459 77458 77457 77456 77454 77452 77451 77449 77448 77446 77445 77442 77441 77439 77437 77436 77435 77434 77433 77431 77429 77427 77426 77423 77422 77418 77411 77410 77409 77408 77407 77406 77403 77402 77401 77400 77399 77398 77396 77395 77394 77391 77390 77389 77385 77384 77382 77380 77375 77374 77373 77372 77370 77368 77367 77366 77365 77364 77363 77357 77356 77355 77354 77353 77350 77349 77348 77347 77346 77343 77341 77339 77338 77335 77334 77333 77332 77331 77330 77329 77326 77325 77323 77322 77321 77320 77318 77317 77316 77315 77314 77313 77312 77311 77308 77307 77305 77304 77300 77298 77295 77294 77293 77292 77291 77289 77286 77283 77282 77281 77280 77279 77278 77276 77274 77273 77272 77271 77270 77266 77265 77264 77263 77262 77261 77260 77257 77256 77255 77254 77253 77249 77247 77246 77245 77242 77241 77240 77239 77237 77235 77234 77232 77231 77230 77229 77228 77227 77226 77225 77224 77222 77220 77219 77218 77217 77216 77214 77212 77208 77206 77205 77202 77201 77198 77197 77196 77194 77193 77192 77190 77186 77185 77183 77182 77180 77179 77177 77176 77175 77173 77172 77171 77170 77169 77167 77166 77161 77159 77158 77157 77155 77154 77153 77152 77151 77150 77149 77148 77147 77142 77141 77139 77138 77137 77134 77133 77130 77127 77126 77125 77124 77123 77121 77120 77119 77118 77117 77116 77114 77113 77110 77109 77108 77106 77104 77103 77101 77100 77099 77098 77096 77095 77094 77092 77091 77089 77086 77085 77084 77083 77081 77080 77079 77078 77077 77076 77073 77071 77068 77067 77064 77062 77061 77060 77059 77058 77057 77056 77055 77054 77051 77049 77048 77047 77046 77043 77042 77041 77039 77038 77037 77036 77035 77034 77033 77032 77030 77028 77027 77025 77024 77022 77021 77019 77018 77017 77013 77012 77011 77010 77005 77004 77003 77002 77001 77000 76999 76997 76996 76994 76993 76992 76989 76988 76987 76984 76983 76982 76981 76980 76979 76977 76975 76974 76973 76972 76971 76969 76967 76965 76964 76963 76962 76961 76959 76956 76954 76953 76952 76951 76950 76949 76946 76945 76944 76943 76941 76938 76937 76935 76934 76931 76930 76929 76928 76925 76924 76923 76922 76919 76918 76917 76916 76914 76909 76907 76906 76905 76904 76900 76899 76898 76897 76896 76895 76893 76892 76891 76890 76889 76888 76886 76885 76884 76883 76882 76881 76879 76876 76874 76873 76872 76871 76870 76869 76868 76866 76864 76863 76862 76861 76860 76859 76858 76857 76856 76855 76852 76851 76850 76848 76846 76845 76843 76842 76840 76839 76837 76836 76835 76834 76830 76829 76828 76827 76825 76824 76823 76822 76821 76818 76817 76815 76814 76813 76812 76811 76810 76809 76802 76801 76800 76798 76797 76796 76795 76791 76790 76788 76787 76785 76784 76780 76779 76778 76776 76775 76774 76773 76772 76771 76767 76766 76764 76762 76760 76759 76758 76757 76756 76755 76754 76753 76751 76750 76749 76748 76744 76743 76742 76741 76739 76738 76737 76736 76735 76734 76732 76731 76730 76729 76728 76727 76725 76724 76723 76722 76721 76720 76719 76716 76715 76714 76713 76710 76709 76707 76706 76705 76704 76703 76702 76701 76700 76699 76698 76696 76695 76694 76693 76691 76690 76689 76687 76686 76685 76682 76681 76679 76677 76675 76674 76672 76671 76670 76669 76668 76666 76665 76664 76662 76661 76659 76658 76657 76656 76654 76653 76652 76651 76648 76647 76646 76644 76643 76642 76641 76640 76639 76638 76637 76636 76635 76634 76633 76632 76631 76630 76629 76628 76627 76626 76625 76623 76621 76619 76618 76617 76615 76614 76611 76607 76606 76605 76604 76601 76600 76599 76597 76596 76594 76592 76591 76590 76588 76584 76583 76581 76580 76579 76576 76575 76573 76572 76571 76569 76567 76564 76563 76562 76560 76555 76554 76553 76552 76551 76549 76548 76545 76544 76543 76542 76541 76540 76539 76534 76531 76529 76526 76523 76522 76521 76520 76519 76518 76516 76515 76514 76513 76511 76510 76509 76508 76507 76506 76505 76504 76503 76502 76501 76500 76499 76498 76496 76495 76494 76493 76490 76489 76488 76487 76486 76485 76484 76481 76479 76478 76477 76476 76472 76471 76469 76468 76465 76464 76463 76460 76459 76458 76457 76454 76452 76449 76447 76445 76444 76440 76438 76437 76435 76434 76433 76431 76430 76429 76427 76426 76425 76424 76423 76422 76421 76420 76419 76418 76417 76415 76414 76413 76411 76410 76409 76408 76406 76405 76404 76403 76402 76401 76400 76399 76398 76397 76395 76393 76389 76387 76386 76385 76384 76383 76382 76381 76380 76379 76378 76377 76376 76375 76374 76372 76371 76370 76369 76368 76367 76365 76364 76363 76362 76361 76360 76359 76358 76356 76355 76354 76353 76352 76351 76349 76348 76347 76346 76345 76344 76342 76341 76339 76338 76335 76334 76333 76331 76330 76328 76327 76326 76324 76323 76322 76319 76318 76317 76315 76314 76313 76311 76310 76309 76307 76306 76305 76304 76301 76300 76299 76298 76297 76293 76292 76291 76289 76288 76287 76285 76284 76283 76281 76280 76279 76277 76275 76274 76273 76271 76269 76268 76267 76266 76265 76264 76263 76262 76259 76258 76257 76256 76255 76254 76252 76251 76250 76249 76247 76246 76244 76243 76242 76241 76240 76239 76235 76234 76233 76232 76231 76229 76227 76226 76225 76223 76221 76219 76218 76215 76214 76213 76212 76209 76208 76207 76206 76202 76201 76200 76198 76197 76195 76193 76192 76189 76187 76185 76184 76183 76179 76178 76176 76173 76172 76171 76170 76169 76168 76166 76164 76163 76162 76160 76159 76158 76157 76156 76152 76150 76148 76147 76146 76143 76142 76141 76139 76138 76137 76136 76134 76132 76131 76130 76129 76128 76127 76126 76125 76123 76122 76120 76119 76118 76117 76115 76114 76113 76112 76111 76106 76105 76104 76103 76102 76100 76099 76098 76097 76096 76095 76094 76093 76091 76089 76087 76085 76084 76083 76081 76080 76079 76078 76077 76076 76074 76073 76072 76070 76069 76068 76067 76066 76064 76063 76062 76061 76060 76059 76058 76055 76054 76053 76052 76051 76050 76049 76048 76045 76044 76043 76042 76041 76040 76039 76035 76033 76032 76030 76028 76027 76025 76024 76022 76017 76016 76012 76011 76010 76009 76006 76004 76003 76002 76001 76000 75999 75997 75996 75994 75992 75989 75988 75987 75985 75984 75983 75982 75981 75980 75977 75975 75974 75973 75972 75971 75969 75967 75966 75965 75964 75963 75962 75960 75959 75958 75957 75956 75954 75952 75951 75950 75949 75948 75947 75946 75945 75943 75942 75941 75940 75939 75936 75935 75934 75933 75932 75929 75928 75927 75924 75923 75922 75918 75916 75914 75913 75911 75908 75907 75906 75905 75904 75903 75900 75899 75898 75897 75896 75895 75893 75892 75891 75889 75888 75887 75883 75882 75881 75879 75878 75877 75876 75871 75870 75869 75868 75867 75866 75865 75864 75862 75861 75859 75858 75854 75851 75850 75849 75848 75847 75845 75844 75843 75842 75840 75839 75838 75837 75836 75835 75834 75833 75830 75829 75828 75826 75825 75824 75822 75819 75817 75816 75815 75814 75813 75812 75811 75810 75809 75808 75807 75806 75805 75804 75803 75802 75801 75799 75798 75797 75796 75795 75793 75791 75789 75788 75786 75785 75784 75783 75782 75779 75778 75775 75772 75770 75769 75767 75766 75764 75763 75762 75761 75760 75759 75758 75757 75756 75754 75752 75749 75748 75746 75745 75744 75742 75741 75738 75737 75735 75733 75732 75731 75729 75728 75726 75725 75723 75722 75721 75720 75719 75718 75715 75714 75713 75712 75710 75709 75708 75707 75705 75704 75703 75702 75701 75700 75699 75698 75696 75695 75693 75692 75691 75690 75688 75685 75684 75682 75681 75680 75677 75676 75674 75671 75670 75668 75667 75665 75664 75663 75662 75660 75659 75658 75656 75655 75654 75652 75650 75647 75646 75645 75644 75643 75641 75640 75635 75634 75633 75631 75629 75628 75627 75623 75621 75620 75616 75615 75614 75613 75611 75610 75609 75608 75607 75606 75604 75603 75602 75600 75596 75595 75594 75593 75590 75589 75586 75583 75582 75579 75578 75577 75575 75574 75573 75572 75568 75566 75565 75564 75561 75560 75558 75557 75556 75551 75549 75547 75545 75543 75542 75541 75540 75539 75538 75537 75536 75535 75534 75532 75531 75530 75529 75528 75526 75525 75523 75520 75519 75518 75517 75515 75512 75511 75510 75507 75505 75504 75503 75502 75501 75500 75496 75495 75494 75493 75492 75490 75488 75485 75482 75478 75477 75475 75474 75473 75471 75470 75469 75468 75467 75466 75465 75464 75463 75461 75459 75458 75457 75456 75454 75453 75452 75451 75450 75449 75447 75446 75445 75443 75441 75440 75438 75437 75436 75434 75433 75432 75431 75427 75424 75423 75419 75418 75417 75416 75412 75411 75410 75408 75407 75405 75400 75398 75397 75396 75395 75394 75393 75391 75387 75386 75385 75383 75379 75377 75375 75374 75372 75371 75370 75369 75368 75366 75365 75363 75362 75361 75358 75356 75355 75354 75353 75352 75351 75350 75349 75348 75346 75345 75344 75343 75341 75339 75338 75336 75335 75331 75329 75328 75327 75326 75325 75324 75322 75321 75320 75318 75316 75314 75313 75312 75311 75309 75308 75307 75302 75299 75297 75296 75294 75293 75291 75290 75289 75288 75286 75284 75282 75281 75280 75279 75277 75276 75274 75271 75270 75268 75266 75265 75264 75261 75260 75258 75257 75256 75255 75254 75252 75251 75249 75247 75246 75245 75243 75242 75240 75237 75235 75233 75232 75231 75230 75228 75226 75225 75224 75222 75217 75216 75214 75213 75211 75209 75207 75206 75203 75200 75199 75198 75196 75194 75193 75188 75187 75186 75183 75182 75179 75178 75176 75174 75171 75170 75167 75166 75165 75162 75161 75159 75157 75155 75154 75153 75152 75151 75150 75147 75146 75145 75144 75142 75141 75139 75138 75137 75136 75134 75132 75128 75126 75124 75122 75119 75117 75116 75115 75114 75113 75110 75109 75108 75107 75106 75105 75104 75103 75102 75100 75099 75098 75097 75096 75095 75094 75093 75092 75090 75089 75088 75087 75083 75081 75080 75079 75078 75077 75076 75073 75071 75070 75068 75066 75065 75062 75061 75060 75055 75054 75053 75051 75050 75049 75045 75043 75041 75040 75039 75038 75037 75035 75034 75032 75031 75030 75029 75027 75023 75022 75021 75020 75015 75014 75011 75009 75004 75003 75002 75001 75000 74998 74995 74994 74993 74989 74987 74986 74985 74984 74982 74981 74980 74979 74977 74976 74975 74974 74973 74971 74970 74968 74967 74965 74964 74963 74962 74961 74959 74958 74957 74952 74949 74946 74944 74940 74939 74938 74936 74933 74932 74931 74930 74929 74928 74927 74926 74924 74923 74920 74919 74918 74917 74916 74915 74914 74911 74910 74909 74906 74904 74903 74902 74900 74899 74897 74896 74895 74893 74889 74888 74886 74885 74883 74881 74879 74878 74877 74874 74873 74872 74871 74869 74866 74863 74862 74861 74860 74859 74857 74856 74855 74854 74853 74851 74848 74846 74843 74839 74837 74836 74835 74834 74833 74831 74830 74829 74825 74824 74823 74822 74821 74819 74818 74816 74815 74814 74813 74812 74811 74809 74807 74806 74805 74803 74801 74800 74796 74795 74794 74793 74792 74787 74786 74783 74782 74781 74780 74779 74778 74777 74776 74774 74773 74772 74771 74769 74768 74767 74764 74763 74762 74761 74760 74759 74758 74755 74754 74753 74752 74751 74750 74748 74747 74745 74743 74742 74741 74740 74739 74738 74737 74736 74735 74734 74732 74731 74726 74723 74722 74721 74720 74719 74718 74717 74716 74713 74712 74711 74708 74707 74705 74704 74703 74702 74701 74700 74699 74696 74695 74693 74692 74691 74688 74687 74685 74684 74683 74681 74680 74679 74678 74677 74676 74674 74671 74668 74665 74664 74662 74661 74659 74658 74657 74655 74654 74653 74652 74651 74650 74649 74648 74647 74646 74644 74643 74641 74640 74639 74636 74635 74633 74632 74630 74628 74626 74625 74623 74622 74621 74620 74618 74616 74614 74612 74611 74610 74609 74608 74606 74605 74604 74603 74602 74601 74599 74598 74597 74594 74593 74592 74591 74587 74586 74585 74584 74582 74581 74580 74579 74577 74576 74574 74573 74571 74570 74569 74568 74566 74565 74564 74563 74559 74558 74557 74556 74554 74553 74552 74551 74549 74548 74547 74546 74545 74542 74541 74540 74539 74538 74537 74536 74535 74534 74533 74532 74528 74527 74526 74524 74523 74522 74519 74518 74514 74512 74511 74509 74508 74507 74506 74504 74503 74501 74500 74499 74497 74496 74493 74492 74491 74490 74489 74485 74484 74482 74481 74480 74479 74478 74477 74476 74475 74473 74472 74471 74470 74468 74467 74466 74465 74464 74461 74460 74459 74458 74457 74455 74454 74451 74450 74446 74445 74444 74443 74442 74440 74438 74436 74434 74432 74430 74429 74428 74427 74425 74424 74423 74421 74419 74417 74415 74414 74412 74411 74409 74407 74405 74404 74403 74402 74400 74399 74398 74397 74396 74394 74393 74390 74389 74385 74383 74382 74380 74379 74378 74376 74375 74374 74373 74369 74368 74366 74364 74363 74362 74361 74360 74359 74358 74356 74355 74354 74353 74352 74349 74347 74346 74345 74344 74342 74341 74340 74339 74338 74337 74336 74333 74328 74327 74325 74324 74321 74319 74316 74315 74314 74313 74312 74310 74309 74308 74305 74304 74303 74302 74301 74300 74299 74297 74296 74295 74294 74292 74291 74287 74285 74284 74283 74282 74281 74278 74277 74276 74275 74274 74273 74272 74271 74269 74268 74267 74266 74265 74263 74262 74260 74259 74257 74256 74255 74254 74253 74251 74249 74247 74246 74245 74244 74243 74241 74239 74237 74236 74235 74234 74233 74232 74229 74227 74226 74225 74223 74219 74218 74217 74215 74214 74209 74206 74205 74204 74203 74201 74200 74199 74198 74197 74196 74195 74194 74193 74192 74191 74190 74188 74187 74186 74185 74184 74183 74181 74180 74179 74178 74177 74175 74174 74173 74172 74171 74170 74169 74167 74166 74165 74160 74158 74156 74155 74154 74152 74149 74148 74146 74145 74144 74143 74142 74141 74137 74136 74135 74134 74133 74131 74130 74129 74128 74127 74126 74125 74124 74123 74122 74121 74120 74116 74115 74114 74112 74111 74109 74108 74107 74106 74105 74104 74102 74101 74100 74099 74098 74097 74095 74093 74092 74090 74089 74088 74087 74086 74085 74084 74082 74081 74080 74079 74078 74077 74075 74074 74072 74067 74065 74064 74063 74057 74056 74052 74050 74049 74048 74047 74043 74040 74038 74037 74034 74033 74031 74030 74029 74028 74027 74025 74024 74023 74022 74021 74020 74019 74018 74017 74016 74015 74013 74012 74011 74010 74009 74007 74006 74005 74003 74001 73999 73998 73997 73995 73993 73992 73990 73989 73988 73984 73983 73982 73981 73980 73979 73978 73976 73975 73971 73970 73969 73967 73966 73962 73959 73955 73954 73953 73952 73949 73947 73945 73944 73940 73939 73938 73937 73934 73933 73932 73930 73929 73927 73924 73923 73921 73918 73916 73915 73914 73912 73909 73908 73907 73906 73905 73904 73903 73902 73901 73899 73897 73892 73890 73889 73885 73882 73881 73879 73878 73877 73876 73874 73872 73871 73870 73865 73864 73862 73861 73859 73858 73857 73856 73855 73854 73853 73852 73851 73850 73848 73847 73845 73844 73843 73842 73841 73840 73839 73838 73836 73835 73832 73830 73828 73827 73824 73822 73821 73819 73818 73817 73815 73814 73813 73812 73811 73810 73809 73808 73807 73805 73804 73803 73801 73797 73796 73795 73792 73791 73790 73788 73787 73786 73785 73784 73781 73780 73779 73777 73776 73775 73774 73772 73771 73770 73769 73768 73767 73766 73764 73763 73762 73761 73760 73759 73756 73755 73753 73750 73749 73747 73745 73743 73742 73741 73738 73737 73736 73733 73732 73731 73730 73729 73727 73726 73725 73724 73722 73720 73718 73716 73714 73713 73712 73709 73708 73707 73706 73703 73702 73697 73696 73695 73692 73691 73690 73689 73688 73687 73686 73683 73682 73680 73679 73677 73675 73669 73667 73666 73664 73663 73662 73659 73658 73657 73655 73653 73652 73651 73650 73649 73648 73647 73646 73645 73642 73641 73639 73638 73637 73636 73635 73633 73632 73629 73628 73627 73625 73624 73622 73621 73618 73617 73615 73613 73612 73611 73610 73608 73607 73605 73602 73601 73600 73599 73598 73597 73595 73594 73593 73591 73589 73587 73586 73582 73581 73580 73579 73577 73576 73575 73574 73573 73571 73570 73569 73568 73567 73566 73564 73561 73560 73559 73558 73557 73556 73555 73554 73551 73550 73549 73548 73546 73545 73544 73543 73542 73541 73539 73537 73535 73533 73531 73530 73528 73526 73524 73523 73522 73520 73519 73518 73517 73516 73515 73514 73513 73512 73511 73510 73509 73508 73507 73506 73505 73501 73499 73498 73496 73494 73493 73492 73491 73490 73489 73488 73487 73486 73485 73482 73481 73480 73479 73478 73476 73475 73474 73473 73472 73471 73468 73467 73465 73464 73463 73462 73461 73460 73459 73458 73456 73455 73454 73453 73452 73451 73450 73449 73448 73447 73446 73445 73444 73443 73441 73440 73438 73437 73436 73435 73434 73430 73429 73427 73425 73421 73420 73417 73415 73413 73412 73410 73409 73407 73406 73404 73402 73401 73399 73398 73397 73395 73394 73393 73389 73387 73385 73384 73383 73381 73377 73376 73375 73374 73372 73371 73369 73368 73367 73366 73365 73363 73362 73361 73358 73357 73356 73355 73354 73353 73352 73351 73348 73347 73344 73342 73341 73340 73339 73338 73336 73335 73331 73329 73327 73326 73325 73322 73321 73317 73316 73314 73313 73312 73311 73310 73307 73306 73303 73301 73299 73296 73295 73294 73293 73292 73291 73290 73288 73286 73283 73282 73281 73279 73278 73276 73273 73272 73271 73269 73268 73267 73266 73265 73263 73262 73261 73260 73259 73257 73256 73255 73254 73252 73251 73250 73249 73248 73247 73245 73244 73243 73242 73241 73240 73239 73238 73237 73236 73235 73233 73231 73228 73227 73226 73225 73224 73223 73221 73220 73218 73216 73215 73214 73212 73210 73208 73206 73205 73204 73203 73201 73200 73199 73198 73197 73196 73192 73191 73190 73189 73188 73187 73186 73184 73183 73182 73181 73180 73179 73177 73175 73174 73173 73172 73169 73168 73167 73166 73163 73162 73160 73159 73158 73157 73156 73155 73153 73150 73148 73146 73145 73144 73143 73142 73140 73139 73136 73132 73131 73129 73128 73127 73125 73121 73120 73119 73117 73116 73114 73111 73110 73109 73108 73103 73102 73101 73097 73096 73095 73094 73092 73091 73086 73084 73082 73079 73078 73077 73076 73074 73073 73072 73066 73061 73059 73058 73057 73056 73054 73053 73051 73050 73049 73048 73045 73044 73043 73042 73040 73039 73038 73036 73034 73031 73030 73029 73028 73027 73025 73024 73023 73022 73018 73017 73016 73015 73014 73013 73012 73011 73009 73008 73004 73003 73002 73001 73000 72998 72994 72992 72990 72989 72988 72987 72986 72985 72983 72982 72981 72980 72979 72978 72977 72976 72975 72973 72971 72970 72969 72968 72967 72966 72964 72963 72962 72961 72957 72956 72954 72953 72951 72950 72949 72948 72946 72945 72940 72939 72938 72937 72936 72935 72933 72931 72930 72929 72922 72921 72920 72919 72918 72912 72911 72910 72909 72907 72906 72904 72903 72902 72901 72897 72896 72892 72891 72886 72885 72884 72883 72881 72879 72878 72876 72874 72873 72871 72870 72869 72865 72864 72863 72862 72860 72858 72857 72856 72855 72854 72853 72850 72848 72847 72845 72843 72841 72839 72837 72835 72832 72831 72830 72829 72828 72824 72821 72819 72818 72817 72816 72815 72811 72810 72809 72808 72807 72806 72804 72802 72799 72798 72796 72795 72794 72793 72792 72791 72789 72788 72787 72785 72784 72783 72782 72781 72780 72779 72778 72776 72774 72772 72771 72770 72767 72764 72763 72762 72757 72754 72753 72752 72751 72750 72748 72745 72743 72740 72739 72738 72737 72733 72731 72730 72729 72728 72727 72726 72725 72724 72723 72722 72718 72716 72713 72712 72710 72709 72707 72706 72705 72704 72702 72700 72699 72697 72696 72694 72693 72690 72689 72687 72686 72685 72684 72683 72680 72678 72677 72676 72675 72672 72670 72669 72667 72666 72665 72663 72662 72660 72658 72657 72655 72654 72653 72652 72650 72649 72647 72646 72645 72643 72641 72640 72639 72638 72637 72636 72635 72634 72632 72631 72630 72629 72628 72627 72626 72625 72623 72619 72618 72616 72615 72613 72612 72611 72610 72608 72607 72606 72605 72603 72602 72601 72600 72597 72596 72595 72594 72593 72590 72589 72586 72584 72583 72579 72578 72577 72575 72574 72572 72571 72568 72566 72564 72563 72562 72561 72560 72558 72555 72554 72553 72552 72551 72550 72547 72546 72545 72543 72542 72541 72539 72538 72536 72535 72533 72532 72531 72530 72529 72527 72526 72525 72524 72522 72521 72520 72519 72517 72516 72515 72514 72513 72512 72510 72509 72507 72505 72504 72503 72500 72499 72498 72496 72494 72493 72492 72491 72490 72488 72487 72486 72485 72484 72483 72482 72480 72478 72477 72476 72475 72474 72472 72470 72469 72468 72467 72466 72465 72464 72463 72462 72461 72460 72459 72458 72457 72456 72455 72454 72453 72452 72451 72450 72448 72447 72444 72443 72442 72440 72439 72438 72434 72432 72431 72430 72429 72427 72425 72424 72423 72422 72421 72416 72414 72413 72412 72409 72408 72407 72405 72404 72401 72399 72398 72396 72395 72394 72393 72392 72391 72390 72387 72385 72384 72383 72382 72378 72377 72375 72372 72371 72369 72368 72367 72366 72363 72361 72360 72359 72357 72354 72353 72352 72348 72345 72344 72343 72340 72337 72336 72335 72334 72333 72332 72330 72329 72328 72327 72326 72325 72324 72323 72322 72321 72319 72318 72316 72314 72311 72310 72308 72307 72306 72305 72304 72303 72302 72300 72299 72298 72297 72295 72294 72293 72292 72289 72287 72286 72283 72282 72281 72280 72279 72278 72277 72276 72275 72274 72273 72272 72271 72268 72267 72266 72265 72264 72263 72260 72258 72257 72256 72255 72253 72252 72251 72249 72248 72247 72246 72244 72242 72241 72239 72236 72235 72234 72233 72232 72231 72230 72228 72227 72226 72225 72224 72223 72220 72218 72216 72215 72214 72211 72210 72209 72208 72206 72205 72204 72202 72201 72198 72197 72196 72191 72189 72187 72186 72185 72184 72181 72180 72175 72174 72173 72172 72170 72169 72168 72167 72166 72165 72164 72162 72161 72160 72159 72158 72157 72156 72155 72154 72152 72151 72150 72149 72147 72146 72143 72142 72141 72139 72137 72136 72135 72134 72132 72131 72129 72128 72127 72125 72124 72120 72119 72118 72116 72115 72113 72112 72110 72108 72104 72102 72100 72096 72095 72092 72091 72088 72087 72086 72085 72084 72083 72082 72081 72080 72079 72077 72076 72075 72074 72072 72071 72070 72067 72066 72065 72064 72063 72062 72061 72056 72055 72054 72053 72051 72048 72046 72045 72044 72043 72042 72041 72040 72039 72038 72037 72036 72035 72034 72032 72031 72030 72029 72026 72024 72022 72019 72017 72015 72014 72013 72011 72008 72006 72005 72004 72003 72002 71998 71997 71994 71993 71991 71987 71986 71982 71980 71976 71974 71973 71972 71970 71969 71967 71966 71963 71962 71961 71959 71957 71956 71955 71954 71951 71950 71949 71948 71947 71946 71945 71940 71939 71938 71937 71936 71934 71933 71931 71930 71929 71927 71926 71924 71922 71921 71918 71917 71916 71915 71914 71913 71911 71910 71908 71903 71902 71900 71898 71897 71895 71894 71893 71892 71891 71890 71889 71888 71887 71885 71883 71882 71880 71879 71878 71877 71876 71875 71874 71873 71869 71868 71867 71866 71864 71863 71861 71860 71858 71856 71855 71854 71853 71850 71849 71846 71844 71842 71841 71840 71839 71838 71836 71834 71833 71832 71829 71828 71827 71826 71823 71821 71819 71818 71817 71816 71815 71812 71811 71810 71808 71804 71803 71802 71801 71799 71798 71797 71796 71795 71791 71789 71788 71787 71786 71785 71784 71783 71782 71780 71779 71777 71775 71773 71772 71771 71770 71767 71766 71765 71764 71763 71762 71761 71759 71758 71755 71754 71752 71749 71748 71746 71744 71743 71739 71737 71735 71734 71732 71731 71729 71727 71725 71724 71723 71721 71720 71719 71718 71716 71715 71714 71712 71709 71707 71705 71703 71702 71701 71700 71699 71698 71696 71695 71693 71691 71690 71688 71687 71686 71685 71682 71681 71680 71679 71678 71677 71676 71675 71674 71673 71672 71670 71667 71666 71664 71662 71661 71660 71659 71657 71656 71655 71654 71653 71646 71644 71643 71642 71641 71639 71638 71637 71636 71634 71633 71632 71630 71629 71628 71627 71626 71625 71622 71621 71619 71616 71615 71613 71612 71609 71607 71604 71602 71601 71600 71599 71598 71597 71596 71595 71592 71591 71590 71588 71587 71586 71581 71580 71575 71574 71573 71569 71568 71566 71564 71562 71561 71557 71555 71554 71553 71552 71551 71548 71547 71545 71544 71543 71540 71539 71538 71537 71534 71532 71529 71527 71526 71525 71524 71521 71520 71518 71517 71516 71515 71511 71509 71508 71506 71505 71504 71503 71501 71500 71499 71498 71497 71495 71494 71493 71491 71490 71489 71487 71486 71485 71483 71481 71480 71478 71477 71473 71471 71470 71469 71468 71467 71465 71464 71463 71461 71460 71459 71458 71457 71454 71453 71452 71451 71450 71448 71447 71446 71444 71443 71441 71440 71439 71438 71437 71436 71431 71430 71429 71428 71427 71426 71425 71424 71422 71421 71420 71419 71418 71416 71415 71414 71413 71412 71411 71410 71409 71408 71407 71406 71405 71404 71403 71402 71401 71400 71397 71396 71392 71388 71384 71383 71382 71381 71379 71378 71374 71371 71370 71368 71367 71366 71365 71362 71361 71360 71356 71355 71354 71351 71350 71349 71348 71347 71346 71344 71343 71342 71341 71338 71336 71333 71332 71331 71330 71329 71328 71325 71324 71322 71321 71320 71319 71318 71315 71314 71313 71312 71310 71308 71306 71305 71303 71302 71301 71300 71298 71294 71291 71289 71286 71285 71282 71281 71278 71275 71274 71272 71271 71270 71269 71266 71265 71263 71262 71260 71258 71257 71256 71255 71253 71252 71251 71250 71249 71248 71247 71246 71244 71243 71241 71238 71237 71236 71234 71232 71231 71230 71228 71226 71225 71223 71221 71220 71219 71218 71216 71215 71213 71212 71211 71207 71206 71205 71204 71201 71200 71199 71198 71196 71195 71193 71192 71191 71190 71187 71183 71181 71179 71177 71174 71172 71170 71169 71168 71167 71164 71163 71162 71161 71160 71159 71156 71155 71154 71152 71151 71148 71146 71145 71144 71142 71141 71140 71137 71136 71135 71133 71129 71128 71127 71125 71124 71123 71122 71121 71120 71118 71116 71115 71114 71112 71111 71110 71109 71107 71106 71104 71102 71100 71098 71097 71095 71094 71093 71091 71090 71089 71088 71086 71084 71083 71082 71080 71079 71078 71075 71072 71070 71068 71065 71064 71062 71061 71060 71059 71058 71056 71055 71052 71051 71050 71049 71046 71045 71042 71041 71040 71039 71037 71036 71034 71031 71030 71029 71028 71027 71026 71024 71023 71021 71020 71019 71018 71016 71015 71014 71013 71009 71008 71007 71004 71002 71001 71000 70999 70997 70995 70992 70990 70987 70986 70985 70984 70983 70982 70981 70980 70979 70974 70973 70971 70968 70966 70965 70962 70961 70960 70959 70957 70956 70955 70954 70952 70951 70949 70945 70943 70940 70938 70937 70936 70935 70931 70930 70927 70926 70925 70924 70922 70921 70919 70918 70917 70916 70915 70914 70913 70912 70910 70909 70908 70906 70905 70904 70903 70902 70900 70899 70898 70897 70894 70893 70892 70891 70890 70888 70885 70884 70883 70882 70880 70879 70878 70877 70876 70873 70872 70871 70869 70868 70867 70866 70865 70863 70862 70861 70860 70858 70856 70855 70854 70852 70851 70846 70845 70844 70843 70842 70841 70840 70839 70838 70836 70834 70833 70832 70830 70826 70825 70824 70822 70821 70820 70819 70818 70817 70816 70812 70811 70809 70808 70807 70803 70802 70800 70799 70798 70795 70794 70793 70792 70791 70790 70789 70788 70787 70786 70783 70782 70781 70779 70778 70777 70776 70773 70772 70771 70770 70769 70768 70767 70765 70764 70762 70761 70756 70755 70754 70749 70748 70746 70745 70744 70743 70742 70740 70737 70736 70734 70733 70732 70730 70728 70727 70723 70722 70721 70720 70719 70718 70717 70716 70715 70714 70712 70710 70709 70707 70706 70705 70704 70702 70701 70700 70699 70698 70697 70694 70692 70690 70688 70687 70686 70685 70684 70683 70682 70678 70675 70672 70671 70668 70667 70666 70664 70663 70661 70660 70659 70658 70655 70654 70653 70652 70651 70649 70648 70646 70645 70644 70641 70640 70637 70635 70634 70632 70630 70629 70628 70627 70626 70624 70623 70622 70621 70620 70619 70618 70614 70612 70610 70609 70608 70607 70603 70602 70600 70598 70595 70594 70593 70592 70588 70587 70580 70577 70575 70574 70573 70571 70569 70568 70565 70563 70562 70561 70560 70558 70557 70555 70554 70553 70552 70551 70550 70546 70544 70543 70541 70540 70538 70537 70536 70534 70533 70531 70530 70529 70527 70526 70525 70523 70522 70521 70520 70517 70514 70513 70512 70511 70510 70509 70507 70506 70505 70504 70502 70501 70500 70499 70498 70497 70496 70495 70494 70492 70490 70489 70487 70486 70485 70483 70482 70478 70477 70476 70474 70473 70471 70470 70469 70468 70466 70464 70461 70460 70458 70456 70455 70454 70453 70452 70449 70448 70446 70445 70444 70443 70442 70441 70440 70438 70437 70436 70435 70433 70432 70431 70430 70429 70428 70425 70424 70423 70422 70421 70419 70418 70416 70414 70412 70410 70409 70408 70403 70402 70399 70398 70397 70396 70395 70393 70392 70391 70389 70388 70387 70385 70384 70383 70381 70380 70378 70377 70371 70370 70369 70366 70364 70363 70362 70360 70359 70357 70355 70354 70353 70352 70351 70349 70347 70346 70343 70341 70339 70338 70337 70336 70334 70333 70331 70330 70329 70328 70327 70325 70323 70322 70321 70320 70319 70314 70313 70312 70311 70310 70306 70305 70303 70299 70297 70294 70293 70292 70287 70286 70285 70284 70283 70282 70281 70280 70279 70278 70276 70275 70274 70272 70271 70270 70269 70266 70264 70263 70260 70259 70258 70257 70256 70255 70254 70253 70252 70251 70249 70246 70245 70244 70243 70240 70239 70238 70237 70236 70234 70233 70231 70230 70229 70227 70225 70223 70220 70219 70218 70215 70213 70211 70210 70206 70203 70202 70198 70197 70195 70193 70191 70189 70188 70187 70186 70185 70182 70181 70180 70178 70177 70176 70174 70172 70170 70168 70167 70166 70165 70164 70163 70161 70159 70158 70157 70156 70154 70152 70151 70150 70149 70148 70147 70146 70145 70138 70135 70134 70132 70131 70130 70129 70128 70127 70125 70123 70122 70121 70120 70119 70118 70117 70116 70115 70114 70113 70112 70111 70110 70109 70107 70103 70102 70101 70100 70099 70098 70097 70096 70092 70091 70089 70087 70086 70084 70083 70081 70079 70077 70076 70070 70068 70067 70063 70062 70061 70060 70059 70057 70055 70053 70051 70050 70047 70046 70043 70041 70038 70037 70036 70034 70033 70031 70030 70029 70028 70027 70025 70024 70023 70020 70018 70017 70015 70014 70013 70012 70011 70009 70008 70007 70005 70004 70003 70001 70000 69999 69997 69996 69995 69994 69991 69988 69987 69986 69984 69983 69981 69980 69977 69973 69971 69967 69965 69964 69962 69961 69960 69959 69958 69957 69954 69952 69951 69948 69947 69945 69942 69939 69938 69937 69936 69935 69934 69933 69931 69929 69928 69927 69926 69925 69924 69923 69922 69921 69920 69919 69918 69917 69915 69912 69911 69910 69907 69906 69904 69903 69899 69898 69896 69895 69894 69893 69892 69891 69890 69889 69888 69887 69886 69885 69884 69881 69880 69879 69878 69877 69872 69871 69870 69866 69864 69863 69862 69857 69856 69854 69853 69852 69848 69846 69843 69840 69839 69838 69837 69836 69835 69834 69833 69831 69830 69829 69826 69825 69824 69823 69822 69821 69820 69818 69816 69815 69813 69811 69810 69808 69807 69806 69805 69804 69803 69802 69801 69800 69798 69796 69795 69793 69792 69791 69790 69787 69785 69784 69783 69782 69781 69779 69778 69775 69773 69772 69771 69770 69769 69767 69766 69765 69763 69762 69761 69760 69759 69758 69757 69756 69755 69754 69753 69752 69749 69747 69745 69744 69740 69739 69738 69737 69735 69733 69730 69729 69727 69726 69725 69724 69722 69721 69720 69719 69718 69717 69715 69713 69712 69711 69710 69706 69704 69703 69700 69699 69697 69696 69695 69692 69691 69690 69689 69686 69685 69683 69681 69680 69679 69677 69675 69670 69669 69665 69664 69663 69660 69658 69657 69655 69654 69652 69650 69648 69647 69644 69642 69637 69634 69633 69631 69628 69626 69625 69624 69623 69622 69621 69619 69618 69615 69614 69613 69612 69610 69609 69606 69605 69603 69602 69601 69600 69599 69596 69595 69594 69593 69592 69591 69589 69587 69584 69583 69580 69579 69578 69576 69574 69573 69572 69571 69570 69569 69568 69567 69565 69563 69562 69561 69558 69557 69555 69554 69553 69551 69550 69548 69547 69546 69539 69538 69536 69534 69533 69532 69530 69529 69528 69527 69526 69525 69524 69522 69521 69519 69518 69517 69514 69511 69510 69505 69504 69502 69500 69499 69496 69495 69494 69492 69490 69487 69486 69485 69484 69482 69481 69479 69476 69474 69473 69472 69470 69467 69466 69465 69464 69463 69462 69461 69460 69459 69458 69457 69456 69455 69451 69447 69445 69444 69443 69442 69441 69440 69438 69436 69435 69434 69433 69432 69430 69428 69427 69426 69425 69422 69421 69420 69419 69418 69417 69416 69414 69413 69411 69409 69408 69407 69406 69405 69404 69403 69402 69401 69400 69399 69398 69397 69393 69392 69391 69390 69389 69387 69386 69385 69383 69382 69381 69380 69379 69378 69377 69376 69375 69374 69373 69370 69369 69368 69367 69364 69359 69356 69354 69351 69350 69349 69346 69341 69340 69337 69336 69334 69333 69331 69330 69329 69328 69327 69326 69325 69319 69317 69315 69314 69312 69311 69310 69309 69308 69307 69306 69303 69302 69301 69300 69299 69298 69297 69296 69293 69292 69290 69289 69288 69286 69284 69282 69281 69277 69275 69274 69273 69272 69271 69270 69269 69268 69267 69266 69263 69262 69260 69259 69258 69257 69256 69255 69253 69251 69250 69248 69247 69246 69244 69243 69242 69240 69239 69238 69237 69236 69235 69232 69231 69227 69226 69224 69223 69222 69221 69220 69219 69217 69214 69212 69209 69208 69204 69203 69202 69201 69200 69199 69196 69195 69194 69190 69189 69188 69187 69186 69185 69183 69181 69180 69179 69178 69177 69176 69175 69174 69173 69172 69171 69169 69167 69166 69163 69161 69159 69157 69156 69154 69153 69152 69151 69150 69149 69148 69147 69146 69145 69144 69141 69138 69137 69136 69135 69134 69133 69132 69130 69126 69125 69124 69123 69121 69120 69119 69118 69113 69111 69109 69108 69107 69106 69105 69104 69103 69102 69101 69100 69099 69098 69097 69096 69094 69093 69092 69090 69089 69086 69084 69082 69079 69078 69075 69074 69073 69072 69071 69069 69068 69067 69065 69064 69063 69062 69061 69060 69059 69058 69056 69055 69054 69052 69050 69049 69046 69045 69044 69043 69042 69039 69038 69037 69036 69035 69033 69032 69031 69030 69029 69028 69027 69025 69024 69023 69022 69020 69019 69017 69016 69015 69013 69012 69011 69009 69007 69004 69003 69002 68999 68997 68996 68994 68993 68992 68991 68989 68987 68986 68985 68983 68981 68980 68978 68977 68976 68973 68971 68970 68969 68968 68967 68966 68965 68963 68962 68960 68958 68956 68955 68954 68953 68951 68950 68949 68948 68947 68945 68943 68942 68941 68940 68939 68938 68932 68930 68929 68927 68926 68925 68923 68922 68920 68919 68917 68915 68911 68910 68908 68904 68903 68901 68900 68899 68897 68896 68894 68893 68892 68891 68890 68889 68888 68886 68885 68884 68882 68881 68880 68879 68877 68874 68872 68870 68869 68868 68867 68866 68865 68864 68863 68862 68861 68860 68859 68858 68857 68855 68854 68853 68852 68851 68849 68847 68846 68845 68842 68841 68836 68835 68834 68833 68831 68830 68829 68827 68826 68824 68823 68822 68821 68820 68819 68816 68814 68813 68812 68811 68810 68806 68805 68804 68802 68800 68799 68797 68796 68795 68794 68793 68792 68791 68790 68787 68783 68778 68777 68776 68774 68771 68769 68767 68765 68764 68763 68757 68756 68754 68752 68751 68750 68749 68748 68746 68745 68744 68743 68741 68740 68738 68737 68736 68735 68734 68732 68731 68730 68729 68728 68727 68726 68723 68722 68720 68717 68716 68714 68708 68707 68706 68705 68704 68703 68702 68701 68699 68697 68696 68694 68693 68692 68691 68690 68689 68686 68684 68683 68682 68681 68680 68679 68678 68676 68675 68674 68672 68669 68667 68666 68665 68664 68662 68661 68659 68657 68656 68655 68654 68653 68651 68650 68649 68647 68645 68644 68643 68642 68641 68640 68639 68638 68637 68636 68634 68632 68631 68630 68629 68627 68625 68623 68622 68620 68619 68618 68616 68614 68613 68612 68611 68610 68609 68608 68606 68605 68604 68601 68599 68598 68597 68596 68594 68591 68589 68588 68585 68584 68583 68582 68579 68578 68577 68576 68574 68571 68569 68568 68567 68566 68565 68564 68561 68560 68559 68558 68557 68556 68555 68554 68551 68550 68548 68546 68544 68543 68542 68541 68539 68538 68537 68536 68535 68533 68531 68528 68527 68524 68523 68522 68521 68519 68518 68517 68515 68513 68512 68510 68509 68507 68506 68505 68503 68502 68500 68497 68496 68495 68494 68493 68492 68488 68487 68486 68485 68484 68483 68481 68478 68477 68476 68475 68474 68473 68471 68470 68469 68467 68465 68464 68460 68458 68457 68456 68451 68450 68447 68446 68445 68442 68441 68440 68438 68437 68435 68434 68432 68431 68430 68429 68428 68426 68425 68424 68421 68420 68418 68417 68416 68415 68414 68413 68412 68411 68410 68409 68408 68407 68406 68405 68403 68398 68397 68395 68394 68393 68391 68389 68387 68386 68385 68383 68379 68378 68375 68374 68373 68372 68371 68370 68369 68367 68366 68365 68363 68362 68361 68360 68359 68358 68356 68354 68353 68352 68351 68350 68348 68346 68345 68344 68343 68341 68340 68339 68338 68336 68335 68334 68333 68332 68331 68329 68328 68327 68326 68325 68324 68323 68321 68320 68318 68317 68315 68312 68311 68310 68306 68305 68304 68303 68302 68301 68300 68299 68298 68296 68294 68293 68292 68291 68290 68289 68286 68285 68283 68282 68281 68279 68277 68276 68274 68273 68271 68270 68268 68267 68266 68264 68263 68262 68261 68259 68255 68253 68251 68249 68247 68245 68241 68240 68238 68237 68236 68235 68229 68227 68225 68224 68223 68222 68221 68218 68217 68216 68214 68213 68212 68209 68208 68207 68206 68205 68204 68202 68201 68199 68198 68196 68195 68194 68193 68192 68190 68187 68185 68184 68183 68182 68181 68180 68179 68177 68175 68174 68173 68172 68171 68170 68169 68168 68166 68165 68164 68163 68162 68161 68160 68159 68158 68155 68152 68151 68147 68146 68145 68142 68140 68139 68138 68136 68135 68132 68131 68128 68125 68124 68123 68122 68120 68118 68116 68114 68113 68111 68110 68109 68108 68107 68106 68105 68104 68102 68101 68099 68098 68097 68095 68093 68092 68091 68090 68089 68085 68083 68079 68078 68077 68076 68074 68073 68072 68071 68070 68067 68066 68065 68061 68060 68059 68058 68057 68056 68054 68053 68052 68049 68047 68046 68044 68042 68041 68039 68037 68036 68033 68032 68031 68030 68029 68027 68026 68025 68024 68022 68020 68019 68018 68017 68016 68015 68012 68010 68008 68007 68005 68004 67997 67996 67995 67993 67992 67991 67990 67989 67987 67985 67984 67983 67981 67980 67978 67974 67971 67970 67968 67967 67965 67964 67963 67962 67961 67960 67959 67958 67957 67956 67955 67954 67952 67951 67950 67948 67944 67943 67942 67941 67939 67938 67935 67934 67933 67932 67931 67929 67928 67927 67926 67924 67923 67920 67919 67918 67917 67916 67914 67913 67912 67911 67910 67909 67907 67905 67904 67903 67902 67901 67900 67899 67898 67897 67895 67893 67889 67888 67887 67885 67883 67882 67881 67880 67879 67878 67876 67875 67874 67872 67871 67870 67869 67868 67866 67864 67863 67862 67860 67858 67857 67856 67855 67854 67853 67852 67851 67850 67849 67845 67844 67843 67841 67840 67839 67838 67837 67835 67834 67832 67831 67830 67829 67827 67825 67824 67823 67822 67821 67817 67816 67814 67811 67810 67808 67807 67803 67800 67799 67798 67796 67795 67793 67790 67788 67786 67784 67783 67782 67780 67779 67778 67777 67775 67774 67773 67772 67768 67767 67766 67765 67763 67762 67761 67760 67759 67756 67754 67753 67751 67750 67748 67745 67743 67742 67741 67739 67738 67736 67734 67733 67732 67731 67730 67729 67727 67725 67724 67723 67721 67719 67718 67716 67715 67713 67712 67709 67707 67706 67705 67704 67703 67702 67699 67698 67697 67695 67693 67692 67691 67690 67687 67686 67685 67684 67683 67681 67679 67678 67676 67674 67673 67672 67671 67670 67667 67665 67662 67661 67660 67659 67658 67657 67655 67654 67652 67651 67650 67649 67646 67645 67644 67643 67642 67640 67639 67637 67636 67635 67632 67631 67630 67628 67627 67626 67625 67624 67623 67622 67620 67619 67618 67617 67616 67615 67611 67610 67607 67606 67605 67604 67603 67602 67598 67597 67596 67595 67593 67592 67591 67590 67588 67587 67585 67584 67583 67579 67578 67575 67573 67572 67571 67568 67567 67565 67563 67562 67561 67560 67559 67558 67556 67555 67553 67552 67550 67549 67547 67545 67544 67541 67540 67538 67537 67534 67533 67532 67531 67530 67527 67525 67522 67521 67520 67519 67517 67516 67515 67514 67512 67510 67509 67506 67505 67504 67502 67501 67499 67498 67496 67494 67493 67491 67490 67488 67486 67485 67484 67481 67478 67477 67476 67473 67472 67471 67470 67469 67468 67467 67465 67464 67463 67461 67459 67458 67453 67452 67451 67449 67448 67447 67446 67445 67444 67443 67440 67437 67436 67435 67434 67433 67432 67431 67430 67428 67427 67422 67421 67420 67419 67417 67416 67415 67414 67409 67408 67406 67404 67401 67400 67398 67397 67394 67391 67390 67389 67387 67383 67382 67381 67380 67379 67378 67376 67374 67372 67370 67369 67368 67367 67365 67364 67363 67362 67361 67359 67358 67355 67354 67353 67352 67350 67349 67348 67347 67346 67345 67342 67341 67340 67338 67337 67336 67335 67334 67332 67329 67326 67324 67323 67322 67321 67320 67319 67318 67316 67315 67314 67313 67312 67311 67309 67308 67307 67306 67304 67303 67302 67300 67299 67298 67297 67296 67294 67292 67290 67289 67288 67286 67285 67284 67282 67281 67279 67278 67277 67274 67273 67271 67269 67268 67267 67266 67265 67263 67262 67261 67257 67255 67254 67250 67248 67247 67246 67244 67243 67242 67241 67239 67238 67237 67234 67229 67226 67225 67224 67222 67221 67220 67216 67215 67214 67213 67212 67210 67209 67204 67203 67202 67201 67200 67199 67198 67197 67196 67195 67193 67191 67190 67188 67187 67186 67185 67184 67183 67182 67181 67180 67179 67178 67176 67170 67166 67164 67163 67162 67161 67160 67158 67157 67156 67154 67153 67151 67150 67148 67147 67146 67145 67144 67141 67140 67138 67137 67135 67131 67130 67129 67127 67125 67123 67122 67120 67119 67117 67116 67115 67114 67113 67112 67111 67109 67108 67107 67104 67103 67102 67098 67096 67095 67092 67091 67090 67089 67088 67087 67086 67084 67082 67081 67079 67075 67074 67073 67072 67071 67069 67068 67067 67066 67065 67064 67062 67061 67060 67059 67058 67057 67056 67050 67047 67045 67043 67041 67039 67035 67034 67033 67032 67031 67030 67028 67025 67024 67023 67022 67021 67020 67019 67017 67013 67012 67010 67009 67008 67007 67006 67004 67003 67002 67000 66998 66997 66995 66994 66992 66991 66989 66986 66984 66983 66982 66981 66980 66978 66974 66973 66972 66970 66969 66967 66966 66965 66963 66962 66960 66959 66958 66957 66956 66954 66953 66952 66950 66949 66947 66946 66945 66941 66940 66937 66935 66934 66932 66931 66929 66928 66927 66926 66925 66924 66923 66922 66919 66917 66916 66915 66914 66912 66911 66910 66909 66908 66906 66904 66903 66902 66901 66900 66899 66898 66897 66895 66894 66893 66892 66891 66889 66888 66887 66886 66885 66884 66882 66881 66880 66878 66876 66875 66873 66870 66869 66868 66867 66864 66863 66861 66860 66859 66858 66855 66854 66852 66850 66849 66847 66844 66843 66841 66838 66837 66832 66831 66830 66826 66825 66823 66821 66817 66816 66815 66814 66811 66810 66808 66807 66805 66803 66802 66798 66797 66796 66794 66793 66792 66791 66789 66788 66783 66781 66780 66778 66777 66775 66773 66772 66771 66770 66769 66768 66767 66766 66764 66763 66759 66758 66756 66755 66753 66752 66751 66749 66748 66747 66745 66744 66742 66741 66740 66739 66736 66734 66733 66731 66730 66728 66727 66726 66724 66723 66722 66720 66719 66718 66717 66715 66714 66712 66711 66709 66708 66707 66706 66705 66704 66703 66702 66701 66700 66699 66698 66697 66696 66694 66693 66690 66689 66688 66683 66682 66680 66678 66677 66676 66675 66674 66673 66672 66671 66670 66668 66667 66666 66665 66664 66663 66662 66661 66659 66658 66657 66656 66655 66654 66653 66652 66648 66647 66644 66643 66642 66641 66640 66639 66635 66634 66633 66630 66628 66627 66626 66625 66624 66623 66622 66620 66617 66615 66613 66611 66610 66609 66607 66605 66602 66601 66599 66597 66596 66594 66592 66591 66588 66586 66585 66584 66583 66580 66579 66578 66577 66576 66575 66574 66573 66572 66568 66567 66566 66565 66564 66562 66561 66560 66558 66557 66556 66555 66554 66553 66552 66551 66550 66549 66548 66544 66543 66542 66541 66539 66538 66537 66536 66535 66534 66533 66531 66530 66528 66527 66526 66522 66521 66520 66519 66518 66517 66516 66515 66514 66512 66511 66509 66506 66505 66504 66500 66499 66498 66497 66492 66491 66490 66487 66486 66485 66484 66482 66480 66478 66477 66476 66475 66474 66473 66472 66471 66470 66469 66468 66466 66464 66463 66462 66461 66460 66456 66453 66452 66451 66450 66448 66447 66443 66442 66440 66437 66436 66434 66432 66430 66426 66424 66423 66422 66420 66419 66415 66414 66411 66408 66406 66404 66402 66401 66400 66399 66398 66395 66393 66391 66389 66388 66387 66386 66384 66381 66380 66378 66376 66375 66374 66372 66369 66368 66367 66366 66365 66362 66359 66358 66356 66355 66354 66353 66352 66351 66348 66347 66346 66344 66343 66342 66341 66339 66338 66337 66335 66332 66330 66329 66328 66327 66326 66325 66323 66322 66321 66320 66319 66318 66316 66315 66314 66313 66310 66309 66308 66307 66306 66305 66304 66303 66302 66301 66299 66298 66297 66296 66294 66293 66292 66291 66289 66288 66286 66285 66284 66283 66280 66276 66275 66271 66270 66269 66268 66267 66266 66265 66264 66262 66261 66260 66259 66258 66257 66256 66255 66253 66252 66251 66247 66246 66245 66244 66243 66242 66241 66240 66239 66237 66236 66235 66233 66232 66231 66230 66229 66227 66226 66224 66223 66222 66221 66220 66219 66217 66214 66213 66212 66210 66209 66208 66207 66206 66204 66201 66200 66196 66192 66191 66190 66188 66187 66186 66185 66183 66182 66181 66180 66178 66177 66175 66174 66173 66170 66169 66168 66166 66164 66163 66158 66157 66156 66153 66150 66148 66147 66144 66143 66142 66141 66140 66139 66138 66135 66134 66132 66130 66128 66127 66126 66125 66124 66123 66122 66121 66120 66119 66118 66117 66116 66114 66113 66112 66111 66109 66107 66105 66104 66103 66101 66098 66097 66096 66095 66094 66092 66089 66088 66087 66085 66084 66083 66081 66080 66079 66078 66077 66076 66073 66072 66071 66070 66069 66068 66066 66065 66064 66063 66062 66061 66060 66058 66056 66054 66053 66052 66051 66050 66049 66048 66044 66043 66041 66040 66038 66036 66035 66031 66029 66028 66027 66024 66023 66021 66020 66019 66018 66016 66013 66011 66008 66006 66005 66004 66003 66000 65999 65997 65996 65994 65993 65992 65991 65990 65987 65986 65985 65983 65982 65981 65980 65979 65978 65975 65973 65972 65971 65969 65966 65965 65964 65962 65958 65957 65956 65954 65951 65950 65948 65947 65946 65944 65936 65935 65933 65931 65930 65928 65926 65924 65923 65922 65921 65919 65917 65916 65915 65914 65913 65910 65909 65908 65907 65906 65905 65904 65902 65901 65900 65898 65896 65894 65893 65892 65891 65890 65889 65887 65886 65885 65883 65882 65880 65878 65876 65873 65872 65868 65867 65866 65865 65862 65860 65859 65857 65856 65855 65854 65853 65852 65851 65850 65847 65846 65843 65842 65841 65840 65839 65838 65837 65836 65835 65834 65831 65830 65829 65828 65826 65825 65824 65821 65820 65818 65817 65816 65814 65813 65811 65809 65807 65806 65805 65802 65800 65798 65797 65795 65794 65792 65790 65789 65788 65787 65785 65783 65782 65781 65779 65778 65777 65776 65775 65772 65770 65769 65768 65767 65766 65765 65760 65758 65757 65756 65755 65754 65753 65752 65749 65747 65745 65744 65743 65741 65739 65738 65737 65736 65735 65734 65733 65732 65731 65730 65729 65727 65726 65724 65723 65722 65721 65719 65718 65717 65716 65715 65714 65713 65712 65711 65709 65706 65705 65704 65703 65702 65700 65699 65697 65695 65693 65692 65689 65687 65686 65685 65684 65683 65681 65680 65679 65678 65677 65676 65675 65674 65673 65672 65670 65669 65668 65667 65666 65665 65663 65662 65661 65660 65658 65657 65656 65654 65652 65651 65650 65649 65648 65644 65643 65642 65641 65640 65639 65637 65636 65632 65631 65630 65629 65627 65626 65624 65622 65620 65619 65616 65614 65611 65610 65608 65607 65606 65605 65604 65603 65600 65599 65597 65596 65595 65593 65592 65591 65590 65589 65588 65585 65583 65582 65581 65579 65575 65573 65571 65570 65569 65567 65565 65563 65560 65559 65558 65557 65555 65554 65553 65552 65551 65550 65549 65548 65544 65543 65542 65541 65540 65538 65536 65534 65533 65532 65530 65529 65528 65527 65524 65523 65522 65521 65520 65519 65518 65517 65516 65514 65513 65512 65511 65510 65509 65508 65507 65505 65504 65503 65502 65500 65499 65498 65497 65496 65495 65488 65487 65486 65485 65483 65481 65480 65479 65476 65475 65474 65472 65470 65468 65467 65464 65463 65461 65460 65459 65458 65457 65456 65455 65454 65453 65451 65450 65449 65446 65445 65444 65443 65441 65440 65439 65438 65434 65433 65432 65431 65430 65429 65425 65424 65423 65422 65421 65420 65419 65418 65417 65416 65415 65412 65411 65409 65408 65406 65405 65404 65402 65401 65400 65399 65398 65396 65394 65393 65392 65391 65390 65385 65382 65380 65376 65374 65373 65372 65371 65370 65366 65365 65364 65361 65360 65357 65355 65353 65351 65350 65348 65347 65346 65345 65343 65342 65341 65339 65338 65337 65335 65334 65331 65330 65329 65328 65327 65326 65325 65323 65322 65321 65318 65316 65314 65313 65312 65311 65310 65309 65307 65305 65301 65295 65294 65293 65292 65289 65288 65287 65286 65285 65281 65280 65279 65278 65277 65275 65272 65271 65268 65265 65264 65262 65261 65260 65259 65256 65254 65253 65252 65250 65249 65242 65241 65240 65238 65237 65236 65232 65229 65226 65225 65223 65220 65219 65218 65217 65216 65215 65214 65213 65212 65208 65207 65206 65204 65203 65202 65201 65199 65198 65197 65196 65195 65194 65192 65191 65189 65188 65184 65183 65182 65178 65177 65176 65175 65174 65173 65171 65170 65169 65168 65166 65165 65161 65159 65158 65155 65154 65153 65152 65150 65149 65148 65147 65145 65143 65142 65141 65139 65136 65135 65134 65133 65132 65131 65130 65125 65124 65123 65122 65121 65120 65119 65117 65113 65112 65111 65110 65109 65108 65106 65104 65103 65102 65101 65100 65099 65098 65097 65095 65093 65091 65088 65087 65086 65085 65084 65083 65081 65076 65074 65073 65072 65071 65069 65068 65067 65066 65065 65064 65061 65060 65059 65057 65055 65053 65052 65051 65049 65048 65047 65046 65045 65044 65042 65041 65040 65039 65038 65037 65036 65035 65034 65031 65030 65029 65028 65027 65026 65025 65024 65022 65021 65018 65015 65013 65011 65009 65008 65006 65005 65004 65003 65002 64999 64998 64996 64993 64989 64987 64986 64984 64982 64981 64980 64979 64977 64976 64975 64974 64973 64972 64971 64970 64967 64966 64965 64964 64963 64962 64961 64960 64959 64958 64956 64954 64953 64952 64950 64948 64947 64946 64943 64940 64939 64938 64937 64935 64934 64932 64931 64930 64929 64926 64925 64922 64921 64920 64918 64917 64916 64913 64911 64909 64907 64905 64904 64903 64901 64898 64896 64894 64893 64892 64891 64889 64888 64885 64884 64882 64880 64878 64877 64876 64875 64870 64868 64866 64865 64863 64861 64860 64859 64858 64857 64855 64854 64853 64851 64850 64848 64847 64846 64845 64843 64842 64840 64839 64838 64837 64836 64834 64832 64829 64828 64827 64826 64825 64824 64822 64820 64819 64818 64817 64816 64814 64812 64811 64810 64809 64806 64804 64803 64802 64801 64800 64799 64798 64797 64796 64794 64792 64788 64787 64786 64785 64784 64783 64781 64780 64777 64776 64774 64773 64772 64771 64770 64766 64763 64762 64761 64760 64759 64757 64756 64755 64754 64753 64751 64749 64748 64747 64746 64743 64740 64737 64736 64734 64733 64732 64730 64728 64726 64725 64723 64722 64719 64718 64717 64714 64713 64712 64710 64709 64706 64705 64704 64703 64702 64701 64699 64698 64697 64695 64694 64691 64690 64689 64688 64687 64686 64685 64683 64682 64681 64680 64677 64676 64675 64674 64672 64670 64669 64668 64667 64666 64665 64664 64662 64660 64658 64657 64655 64654 64652 64651 64650 64649 64647 64646 64645 64644 64643 64642 64640 64637 64636 64633 64632 64629 64628 64625 64623 64622 64620 64617 64616 64615 64614 64612 64610 64608 64607 64606 64602 64601 64596 64595 64594 64593 64592 64591 64588 64587 64586 64584 64583 64582 64579 64577 64576 64575 64572 64571 64570 64569 64568 64566 64563 64562 64559 64558 64554 64553 64551 64549 64548 64547 64546 64543 64542 64540 64539 64536 64535 64534 64533 64532 64531 64530 64529 64528 64526 64523 64522 64521 64519 64518 64516 64515 64513 64512 64511 64509 64508 64507 64506 64504 64503 64502 64501 64500 64499 64498 64495 64494 64493 64492 64490 64489 64487 64486 64484 64482 64479 64478 64477 64475 64474 64473 64471 64470 64469 64468 64467 64466 64465 64464 64463 64460 64458 64457 64455 64454 64453 64451 64450 64449 64448 64446 64445 64443 64438 64437 64436 64435 64433 64432 64431 64430 64429 64427 64423 64422 64421 64419 64418 64417 64415 64414 64412 64411 64410 64409 64408 64407 64404 64401 64400 64399 64398 64397 64396 64395 64394 64392 64391 64390 64389 64387 64385 64384 64383 64382 64380 64379 64378 64377 64376 64375 64373 64372 64371 64370 64369 64367 64364 64361 64360 64358 64357 64354 64353 64352 64351 64350 64348 64347 64345 64343 64341 64339 64338 64336 64333 64329 64326 64325 64324 64323 64321 64320 64318 64317 64316 64313 64311 64310 64309 64308 64307 64305 64304 64303 64302 64301 64297 64296 64293 64292 64291 64290 64289 64287 64286 64285 64284 64283 64280 64279 64276 64275 64274 64273 64268 64267 64266 64264 64263 64259 64258 64257 64256 64254 64251 64248 64242 64241 64239 64237 64236 64235 64231 64230 64229 64225 64223 64221 64219 64216 64214 64212 64211 64207 64206 64205 64204 64203 64201 64199 64198 64197 64194 64193 64192 64191 64189 64188 64185 64184 64182 64180 64179 64176 64175 64174 64173 64172 64170 64168 64167 64166 64165 64163 64162 64161 64160 64158 64157 64156 64155 64154 64152 64151 64149 64148 64147 64146 64145 64144 64143 64141 64140 64139 64138 64137 64134 64131 64129 64128 64127 64126 64125 64124 64122 64121 64120 64118 64116 64115 64114 64113 64111 64110 64109 64108 64106 64105 64101 64100 64099 64098 64097 64095 64094 64093 64092 64087 64085 64083 64082 64081 64080 64079 64078 64077 64076 64075 64073 64071 64070 64069 64068 64067 64065 64064 64063 64061 64059 64057 64052 64051 64049 64048 64043 64042 64041 64040 64039 64038 64037 64036 64034 64033 64032 64031 64030 64029 64026 64025 64024 64020 64019 64015 64009 64007 64005 64004 64003 64002 64000 63999 63998 63997 63996 63995 63993 63992 63991 63990 63989 63987 63985 63984 63982 63980 63979 63978 63976 63975 63974 63972 63969 63967 63966 63961 63960 63959 63958 63957 63956 63955 63952 63951 63950 63949 63944 63943 63942 63941 63940 63939 63935 63933 63932 63931 63930 63929 63928 63925 63922 63921 63919 63918 63917 63916 63915 63913 63912 63911 63910 63909 63908 63907 63906 63905 63904 63902 63901 63900 63898 63897 63896 63894 63893 63892 63891 63889 63888 63886 63885 63884 63883 63880 63879 63878 63877 63875 63874 63873 63871 63870 63869 63867 63864 63862 63861 63857 63856 63855 63854 63853 63852 63848 63847 63846 63845 63844 63842 63840 63839 63838 63836 63835 63834 63832 63831 63830 63828 63827 63826 63822 63820 63819 63818 63817 63816 63815 63812 63811 63810 63808 63807 63806 63805 63803 63802 63801 63799 63798 63797 63796 63794 63792 63791 63790 63789 63788 63787 63785 63784 63782 63781 63780 63779 63777 63775 63773 63772 63771 63769 63767 63765 63764 63763 63762 63760 63759 63757 63755 63754 63751 63750 63749 63748 63747 63746 63745 63744 63742 63741 63740 63739 63738 63734 63733 63732 63731 63730 63729 63728 63725 63724 63722 63721 63720 63718 63717 63716 63713 63712 63707 63706 63704 63702 63700 63697 63696 63691 63690 63688 63685 63684 63682 63680 63679 63678 63677 63676 63675 63674 63673 63672 63671 63670 63669 63668 63667 63665 63664 63663 63662 63659 63658 63656 63655 63654 63653 63652 63651 63650 63649 63648 63646 63642 63639 63637 63636 63635 63634 63631 63628 63627 63625 63624 63622 63621 63620 63616 63614 63613 63612 63611 63606 63605 63604 63601 63600 63599 63598 63594 63593 63592 63590 63589 63588 63586 63585 63582 63581 63579 63578 63574 63571 63570 63569 63568 63563 63562 63559 63558 63556 63554 63553 63552 63550 63548 63544 63543 63541 63539 63538 63535 63534 63533 63532 63530 63529 63527 63526 63523 63522 63518 63517 63516 63515 63514 63513 63512 63505 63504 63503 63502 63501 63500 63498 63497 63496 63494 63493 63492 63491 63490 63489 63486 63485 63484 63481 63480 63478 63474 63473 63472 63471 63470 63466 63465 63464 63462 63461 63460 63459 63458 63456 63455 63453 63451 63450 63449 63448 63447 63446 63445 63443 63442 63441 63439 63438 63437 63434 63431 63430 63429 63428 63426 63425 63424 63423 63422 63420 63419 63417 63416 63415 63414 63413 63412 63411 63410 63407 63405 63404 63403 63402 63401 63400 63399 63398 63396 63393 63392 63391 63390 63388 63386 63383 63381 63379 63378 63376 63374 63373 63372 63370 63367 63365 63364 63362 63361 63360 63358 63355 63351 63350 63349 63348 63347 63346 63345 63344 63343 63341 63339 63338 63337 63336 63334 63333 63328 63326 63324 63323 63322 63320 63319 63317 63314 63311 63310 63309 63308 63306 63304 63303 63302 63301 63300 63299 63297 63295 63294 63293 63292 63291 63288 63287 63286 63285 63284 63283 63282 63281 63280 63279 63276 63275 63274 63272 63269 63268 63267 63266 63265 63263 63262 63261 63260 63259 63258 63257 63256 63255 63252 63251 63249 63248 63247 63244 63243 63242 63240 63239 63238 63236 63235 63234 63233 63231 63230 63229 63228 63227 63224 63222 63221 63220 63219 63217 63216 63215 63214 63213 63212 63211 63210 63209 63208 63206 63205 63203 63202 63200 63199 63198 63197 63195 63193 63192 63189 63185 63184 63182 63181 63180 63174 63173 63171 63170 63169 63167 63166 63165 63164 63162 63160 63159 63158 63157 63154 63153 63152 63151 63150 63148 63144 63139 63138 63137 63136 63129 63128 63127 63126 63125 63124 63121 63120 63119 63118 63117 63116 63115 63114 63113 63112 63111 63109 63108 63106 63105 63104 63103 63101 63100 63099 63098 63097 63096 63095 63094 63093 63092 63091 63089 63087 63086 63085 63084 63083 63079 63077 63074 63073 63071 63070 63069 63068 63065 63064 63063 63060 63059 63057 63056 63054 63053 63051 63049 63046 63045 63043 63042 63040 63039 63037 63036 63035 63034 63033 63032 63030 63029 63028 63027 63024 63023 63022 63019 63018 63016 63015 63014 63012 63011 63010 63009 63007 63006 63004 63003 63002 63001 63000 62999 62998 62997 62996 62993 62992 62991 62990 62988 62987 62985 62984 62982 62980 62979 62978 62977 62976 62975 62974 62972 62971 62970 62967 62966 62965 62964 62963 62961 62960 62959 62958 62957 62956 62955 62952 62951 62950 62948 62947 62946 62944 62943 62942 62940 62939 62938 62937 62935 62934 62931 62930 62929 62928 62927 62926 62925 62924 62923 62921 62920 62919 62918 62917 62916 62915 62913 62910 62907 62906 62905 62904 62903 62902 62900 62899 62898 62896 62895 62894 62893 62892 62891 62888 62885 62884 62883 62882 62881 62879 62878 62875 62874 62873 62872 62871 62870 62869 62868 62867 62866 62865 62864 62863 62862 62861 62860 62858 62857 62856 62855 62854 62853 62852 62850 62849 62848 62847 62846 62844 62842 62841 62840 62839 62838 62835 62834 62833 62831 62830 62828 62827 62826 62824 62823 62822 62821 62820 62819 62817 62816 62815 62812 62811 62810 62809 62807 62806 62805 62803 62802 62801 62800 62795 62794 62793 62792 62790 62786 62785 62783 62782 62781 62780 62779 62778 62777 62776 62775 62774 62772 62771 62770 62769 62768 62767 62766 62764 62763 62762 62761 62760 62757 62756 62755 62754 62753 62752 62750 62749 62748 62747 62746 62744 62743 62742 62741 62740 62737 62736 62735 62734 62732 62731 62730 62729 62728 62727 62724 62721 62719 62718 62717 62716 62714 62713 62712 62711 62710 62709 62708 62707 62706 62703 62702 62701 62700 62698 62697 62696 62695 62694 62691 62690 62689 62686 62684 62683 62682 62681 62679 62678 62677 62675 62674 62673 62672 62670 62669 62667 62664 62659 62658 62657 62655 62654 62653 62651 62650 62649 62646 62645 62644 62643 62642 62641 62636 62634 62630 62627 62624 62622 62621 62620 62617 62615 62613 62611 62610 62609 62606 62605 62598 62595 62592 62591 62590 62587 62586 62585 62584 62583 62580 62578 62575 62571 62570 62568 62566 62565 62563 62561 62559 62557 62556 62555 62554 62553 62552 62551 62550 62549 62547 62546 62545 62542 62540 62538 62536 62533 62528 62527 62526 62525 62524 62523 62522 62521 62519 62518 62517 62515 62514 62513 62512 62510 62509 62508 62507 62506 62505 62504 62503 62502 62501 62499 62498 62496 62495 62493 62492 62490 62489 62487 62486 62485 62484 62483 62482 62481 62478 62477 62476 62475 62473 62472 62470 62469 62468 62467 62465 62463 62462 62461 62460 62458 62457 62456 62452 62451 62450 62449 62448 62447 62446 62445 62444 62442 62440 62439 62436 62435 62434 62430 62429 62427 62425 62424 62422 62421 62418 62417 62416 62412 62408 62407 62406 62405 62404 62403 62401 62398 62397 62395 62393 62392 62391 62388 62387 62386 62385 62382 62381 62378 62377 62376 62373 62371 62370 62369 62368 62366 62365 62364 62362 62359 62358 62357 62356 62354 62352 62348 62347 62345 62342 62341 62340 62339 62338 62337 62336 62335 62334 62333 62330 62328 62327 62326 62325 62323 62322 62321 62319 62318 62315 62313 62310 62309 62308 62307 62306 62305 62304 62303 62302 62298 62294 62292 62290 62289 62288 62287 62286 62285 62284 62283 62282 62280 62277 62276 62275 62273 62272 62268 62266 62265 62263 62261 62260 62259 62258 62254 62252 62251 62250 62249 62248 62247 62243 62242 62241 62240 62238 62236 62235 62233 62232 62231 62229 62228 62227 62226 62224 62223 62222 62221 62219 62218 62214 62213 62212 62211 62209 62206 62205 62203 62202 62200 62199 62198 62197 62195 62194 62193 62192 62191 62190 62189 62188 62187 62186 62185 62183 62182 62181 62180 62179 62178 62177 62175 62174 62173 62171 62167 62166 62164 62160 62159 62157 62156 62155 62154 62153 62152 62150 62149 62148 62147 62146 62145 62144 62142 62139 62137 62136 62135 62134 62133 62132 62131 62127 62126 62124 62122 62121 62120 62119 62117 62116 62115 62113 62111 62109 62108 62107 62106 62105 62103 62101 62100 62098 62097 62096 62093 62092 62091 62088 62087 62086 62084 62082 62081 62080 62079 62078 62077 62075 62074 62072 62071 62068 62067 62066 62065 62064 62062 62061 62060 62059 62058 62057 62056 62055 62053 62052 62051 62050 62049 62048 62047 62044 62043 62042 62037 62036 62035 62034 62033 62030 62029 62028 62027 62026 62025 62023 62022 62020 62019 62018 62015 62014 62013 62010 62007 62006 62004 62003 62001 62000 61999 61998 61996 61995 61994 61992 61990 61987 61986 61985 61984 61981 61980 61979 61977 61976 61974 61973 61972 61970 61968 61967 61966 61965 61964 61963 61962 61959 61958 61957 61955 61954 61953 61952 61951 61949 61948 61945 61942 61941 61940 61939 61938 61936 61935 61934 61933 61932 61931 61930 61929 61927 61925 61924 61922 61921 61919 61918 61917 61916 61914 61911 61910 61909 61908 61907 61904 61903 61902 61901 61899 61897 61895 61892 61890 61889 61888 61886 61884 61881 61879 61878 61875 61874 61873 61870 61869 61868 61867 61866 61865 61861 61859 61857 61855 61853 61852 61851 61850 61849 61848 61847 61845 61842 61839 61837 61836 61835 61834 61833 61832 61831 61830 61829 61827 61826 61824 61822 61821 61820 61819 61818 61817 61814 61813 61812 61811 61810 61808 61807 61805 61804 61803 61802 61801 61800 61796 61795 61794 61789 61788 61787 61786 61785 61784 61783 61782 61781 61779 61778 61777 61775 61774 61773 61770 61769 61767 61765 61764 61763 61762 61761 61760 61759 61758 61756 61755 61754 61752 61751 61750 61748 61747 61744 61742 61741 61739 61737 61736 61735 61734 61733 61732 61730 61729 61728 61727 61724 61723 61722 61721 61720 61719 61718 61717 61716 61714 61713 61712 61709 61707 61704 61703 61701 61699 61698 61695 61694 61693 61691 61689 61688 61687 61686 61685 61684 61683 61681 61680 61679 61678 61677 61674 61672 61668 61667 61666 61664 61663 61662 61660 61656 61655 61654 61651 61649 61648 61647 61646 61645 61644 61643 61642 61640 61639 61638 61637 61636 61634 61631 61630 61629 61627 61624 61623 61622 61621 61619 61617 61616 61614 61613 61612 61611 61610 61608 61606 61604 61602 61601 61600 61599 61598 61597 61595 61594 61593 61592 61591 61590 61589 61588 61586 61585 61584 61581 61580 61579 61576 61573 61571 61568 61567 61566 61565 61564 61563 61562 61560 61559 61557 61556 61554 61552 61551 61550 61546 61544 61543 61541 61540 61539 61538 61537 61536 61534 61533 61532 61529 61528 61527 61526 61525 61524 61523 61521 61520 61519 61518 61517 61516 61515 61514 61513 61512 61510 61509 61507 61505 61503 61502 61500 61499 61498 61497 61496 61495 61494 61493 61492 61490 61489 61488 61486 61482 61479 61477 61476 61475 61473 61471 61469 61468 61467 61464 61463 61462 61461 61459 61458 61457 61456 61455 61454 61453 61452 61451 61450 61449 61448 61446 61445 61444 61443 61442 61441 61440 61438 61437 61436 61435 61433 61432 61431 61430 61429 61427 61425 61423 61421 61419 61418 61417 61416 61415 61414 61413 61410 61409 61408 61407 61405 61403 61402 61401 61400 61396 61395 61393 61392 61389 61386 61385 61382 61379 61377 61375 61374 61370 61368 61364 61363 61362 61360 61359 61358 61357 61356 61355 61353 61352 61351 61350 61349 61348 61347 61346 61343 61342 61341 61340 61338 61337 61335 61334 61333 61332 61331 61329 61326 61324 61323 61322 61320 61319 61317 61315 61314 61312 61310 61309 61308 61305 61302 61301 61300 61299 61298 61297 61296 61295 61293 61292 61291 61289 61288 61287 61286 61282 61281 61278 61276 61275 61273 61272 61271 61270 61269 61268 61267 61266 61263 61262 61261 61259 61255 61254 61252 61251 61250 61249 61248 61247 61246 61245 61243 61241 61238 61237 61236 61235 61234 61233 61232 61231 61228 61227 61226 61222 61218 61216 61213 61210 61209 61208 61207 61206 61204 61201 61200 61199 61198 61197 61195 61194 61192 61191 61189 61188 61186 61185 61181 61179 61178 61176 61175 61172 61170 61168 61167 61166 61165 61162 61161 61160 61159 61158 61157 61156 61155 61153 61152 61151 61149 61148 61147 61146 61145 61141 61140 61139 61138 61137 61134 61133 61126 61124 61123 61122 61120 61117 61114 61113 61112 61110 61109 61108 61107 61105 61104 61102 61100 61097 61095 61094 61090 61085 61084 61082 61080 61079 61078 61077 61071 61068 61064 61063 61062 61061 61059 61058 61057 61056 61054 61052 61051 61050 61048 61046 61045 61043 61042 61041 61037 61036 61035 61034 61032 61030 61029 61027 61026 61025 61023 61022 61020 61019 61018 61017 61014 61013 61009 61008 61006 61005 61002 61001 61000 60998 60996 60995 60993 60992 60990 60989 60988 60987 60986 60983 60982 60980 60978 60977 60976 60975 60974 60972 60971 60970 60969 60967 60966 60964 60963 60962 60961 60960 60959 60957 60956 60955 60954 60953 60952 60948 60947 60946 60945 60943 60942 60940 60939 60938 60937 60933 60932 60931 60930 60929 60928 60927 60925 60924 60922 60921 60920 60919 60918 60916 60915 60914 60913 60912 60911 60909 60908 60907 60903 60902 60901 60900 60899 60898 60897 60896 60895 60894 60893 60892 60891 60890 60889 60887 60886 60885 60884 60883 60881 60880 60879 60877 60875 60874 60873 60872 60871 60870 60867 60865 60864 60863 60862 60858 60857 60855 60854 60851 60850 60849 60848 60847 60846 60845 60843 60842 60839 60837 60836 60835 60834 60833 60831 60830 60829 60828 60827 60826 60823 60822 60820 60818 60815 60812 60811 60809 60805 60804 60803 60802 60801 60800 60799 60797 60795 60793 60792 60791 60788 60787 60786 60785 60784 60782 60780 60776 60774 60773 60772 60770 60768 60767 60766 60765 60764 60763 60762 60761 60760 60759 60758 60755 60754 60750 60744 60743 60740 60739 60736 60735 60733 60732 60731 60730 60729 60728 60727 60725 60720 60719 60718 60717 60715 60714 60713 60711 60710 60708 60704 60703 60700 60699 60698 60697 60696 60694 60693 60692 60690 60688 60686 60683 60682 60678 60676 60675 60674 60672 60671 60670 60669 60668 60666 60665 60664 60663 60660 60659 60658 60657 60656 60655 60654 60653 60650 60649 60648 60644 60641 60639 60638 60635 60634 60633 60632 60630 60628 60626 60624 60623 60622 60620 60619 60618 60617 60616 60614 60613 60612 60610 60607 60604 60603 60602 60601 60600 60597 60594 60593 60592 60591 60590 60589 60588 60587 60585 60583 60582 60581 60580 60579 60578 60571 60567 60566 60562 60561 60560 60558 60557 60556 60553 60552 60550 60548 60547 60546 60544 60543 60542 60541 60540 60539 60538 60534 60533 60532 60531 60529 60527 60526 60525 60524 60523 60522 60521 60520 60518 60517 60516 60514 60511 60510 60509 60508 60507 60504 60503 60502 60499 60498 60496 60495 60494 60492 60491 60489 60488 60485 60484 60483 60482 60481 60478 60477 60473 60472 60471 60468 60467 60465 60464 60463 60461 60459 60457 60456 60454 60453 60452 60450 60449 60447 60446 60443 60442 60440 60439 60438 60436 60434 60432 60428 60427 60426 60425 60423 60420 60419 60415 60414 60412 60411 60408 60407 60405 60404 60402 60401 60400 60399 60398 60393 60391 60390 60388 60386 60385 60384 60382 60380 60377 60376 60375 60374 60370 60369 60366 60365 60363 60362 60361 60359 60358 60356 60354 60352 60351 60350 60347 60344 60342 60340 60339 60338 60337 60336 60335 60334 60333 60329 60327 60326 60325 60324 60321 60320 60319 60318 60316 60315 60313 60312 60311 60309 60308 60306 60303 60302 60301 60300 60299 60298 60293 60291 60290 60288 60287 60285 60282 60281 60280 60277 60276 60275 60274 60273 60271 60270 60269 60268 60267 60266 60265 60263 60262 60261 60259 60258 60256 60255 60254 60252 60251 60247 60246 60244 60243 60242 60241 60237 60236 60230 60229 60228 60227 60223 60222 60221 60220 60219 60218 60214 60212 60211 60210 60209 60208 60207 60204 60203 60202 60197 60196 60195 60194 60193 60192 60190 60187 60186 60185 60184 60183 60182 60181 60180 60179 60178 60177 60174 60173 60171 60170 60168 60167 60166 60164 60163 60162 60161 60160 60159 60158 60157 60155 60153 60152 60149 60147 60146 60145 60143 60142 60141 60140 60138 60137 60135 60134 60132 60129 60128 60126 60125 60123 60122 60121 60120 60119 60117 60115 60113 60112 60111 60109 60108 60107 60106 60105 60102 60101 60098 60097 60095 60093 60092 60091 60090 60087 60086 60085 60084 60082 60081 60078 60077 60076 60075 60074 60073 60072 60070 60069 60065 60064 60063 60062 60060 60058 60057 60056 60055 60054 60053 60052 60051 60050 60049 60048 60046 60045 60044 60042 60041 60040 60038 60037 60036 60033 60032 60031 60030 60029 60027 60025 60024 60023 60022 60020 60019 60018 60016 60013 60012 60011 60007 60005 60004 60003 60002 60001 60000 59999 59997 59996 59991 59990 59989 59988 59987 59986 59985 59984 59978 59976 59975 59970 59969 59968 59966 59963 59962 59961 59959 59958 59957 59956 59955 59954 59953 59951 59949 59948 59947 59945 59944 59943 59942 59941 59940 59939 59938 59936 59935 59932 59931 59930 59929 59928 59926 59923 59921 59920 59919 59917 59916 59914 59913 59912 59911 59909 59906 59905 59904 59903 59902 59901 59897 59896 59895 59894 59892 59891 59890 59889 59888 59887 59886 59885 59884 59882 59880 59879 59877 59875 59874 59872 59871 59870 59868 59866 59863 59862 59861 59860 59859 59857 59856 59855 59854 59853 59852 59851 59850 59849 59848 59845 59843 59842 59841 59840 59839 59837 59836 59834 59833 59832 59831 59829 59828 59827 59826 59825 59824 59823 59822 59820 59818 59817 59816 59815 59814 59813 59811 59810 59804 59802 59801 59800 59799 59798 59797 59796 59793 59791 59790 59789 59787 59785 59784 59782 59781 59780 59779 59778 59777 59776 59773 59772 59771 59768 59767 59766 59765 59763 59762 59761 59759 59758 59755 59754 59753 59752 59750 59749 59747 59746 59745 59744 59740 59739 59737 59736 59735 59732 59730 59728 59727 59726 59725 59724 59723 59721 59720 59718 59716 59715 59714 59713 59711 59709 59707 59706 59704 59703 59702 59701 59700 59699 59697 59695 59694 59693 59692 59691 59690 59689 59686 59685 59682 59681 59680 59679 59678 59677 59676 59675 59672 59671 59670 59669 59668 59667 59666 59665 59664 59663 59661 59660 59659 59656 59655 59654 59653 59652 59651 59648 59647 59644 59640 59639 59638 59633 59632 59630 59629 59628 59627 59626 59625 59624 59621 59620 59618 59616 59614 59612 59610 59609 59608 59605 59604 59603 59602 59601 59600 59599 59598 59597 59596 59593 59592 59588 59587 59586 59584 59583 59582 59581 59580 59579 59578 59577 59575 59574 59572 59570 59569 59568 59566 59565 59564 59563 59562 59559 59558 59557 59555 59554 59552 59551 59547 59544 59543 59541 59540 59539 59536 59535 59534 59533 59532 59531 59530 59529 59526 59525 59524 59523 59522 59521 59520 59519 59517 59514 59513 59511 59510 59509 59508 59506 59505 59504 59503 59501 59500 59499 59498 59496 59495 59494 59493 59492 59490 59489 59485 59483 59482 59479 59477 59476 59474 59473 59472 59467 59466 59465 59464 59463 59462 59461 59460 59459 59458 59456 59455 59453 59451 59450 59449 59446 59444 59443 59442 59441 59439 59436 59435 59434 59433 59432 59431 59430 59428 59427 59426 59423 59422 59419 59416 59415 59414 59412 59411 59410 59409 59408 59406 59405 59403 59401 59400 59398 59397 59396 59394 59393 59392 59391 59390 59389 59386 59385 59382 59381 59376 59375 59374 59373 59372 59371 59369 59368 59367 59366 59365 59362 59361 59359 59358 59357 59355 59354 59353 59352 59351 59349 59348 59345 59344 59343 59342 59341 59340 59339 59338 59337 59336 59335 59334 59333 59332 59330 59329 59327 59324 59322 59321 59320 59319 59318 59317 59316 59313 59311 59309 59308 59307 59306 59305 59304 59303 59300 59298 59297 59296 59292 59290 59289 59288 59287 59285 59283 59280 59275 59274 59273 59272 59271 59270 59269 59267 59262 59261 59260 59259 59257 59256 59255 59253 59252 59250 59249 59248 59247 59246 59245 59244 59242 59241 59237 59236 59234 59233 59232 59231 59230 59227 59226 59225 59224 59223 59222 59221 59220 59219 59218 59217 59215 59213 59212 59211 59210 59209 59208 59205 59204 59202 59199 59198 59197 59195 59194 59191 59190 59189 59187 59186 59185 59183 59182 59180 59179 59177 59176 59175 59174 59173 59172 59171 59170 59169 59167 59162 59161 59158 59157 59156 59155 59150 59149 59148 59146 59145 59144 59143 59142 59141 59140 59139 59136 59134 59131 59128 59127 59126 59124 59122 59121 59120 59119 59118 59116 59114 59113 59112 59111 59110 59109 59108 59107 59104 59101 59094 59093 59092 59091 59090 59089 59087 59086 59085 59082 59080 59079 59078 59077 59076 59075 59074 59073 59072 59068 59067 59066 59063 59062 59060 59059 59056 59055 59054 59053 59052 59051 59049 59048 59047 59046 59045 59044 59042 59041 59040 59039 59038 59037 59036 59035 59034 59031 59030 59029 59028 59027 59026 59025 59024 59023 59022 59021 59019 59018 59017 59016 59014 59012 59010 59009 59008 59007 59005 59004 59003 59002 59001 59000 58999 58998 58996 58995 58992 58991 58990 58988 58986 58984 58982 58981 58980 58975 58974 58973 58972 58971 58970 58969 58965 58964 58961 58960 58959 58958 58957 58956 58955 58954 58952 58951 58949 58948 58947 58945 58944 58943 58940 58939 58938 58936 58933 58932 58931 58928 58927 58926 58925 58923 58922 58921 58918 58917 58916 58915 58914 58913 58912 58908 58907 58906 58905 58902 58901 58897 58896 58893 58892 58890 58889 58888 58886 58885 58884 58883 58882 58881 58878 58875 58873 58872 58871 58870 58868 58866 58864 58863 58861 58860 58859 58858 58857 58855 58854 58853 58852 58850 58849 58848 58846 58845 58843 58842 58839 58838 58837 58835 58833 58831 58830 58829 58828 58827 58826 58825 58824 58823 58822 58821 58820 58817 58816 58814 58813 58809 58807 58805 58802 58801 58798 58797 58794 58792 58791 58790 58789 58788 58787 58785 58784 58782 58781 58780 58779 58777 58776 58775 58774 58773 58772 58770 58766 58765 58764 58763 58762 58760 58758 58755 58754 58753 58752 58751 58750 58749 58748 58747 58745 58743 58742 58740 58739 58735 58734 58733 58732 58728 58727 58726 58725 58723 58722 58717 58716 58715 58712 58711 58710 58707 58706 58705 58704 58703 58699 58698 58697 58695 58693 58691 58690 58689 58688 58686 58685 58683 58682 58680 58678 58674 58673 58671 58669 58667 58666 58665 58664 58663 58662 58661 58659 58658 58657 58655 58654 58650 58649 58648 58645 58644 58643 58642 58641 58640 58639 58638 58637 58636 58635 58634 58633 58632 58630 58629 58628 58627 58626 58625 58624 58623 58622 58621 58620 58619 58618 58617 58616 58613 58612 58611 58609 58605 58604 58603 58602 58600 58599 58598 58596 58594 58591 58590 58589 58588 58585 58584 58583 58581 58580 58578 58575 58574 58572 58571 58570 58569 58565 58563 58562 58561 58560 58558 58554 58553 58552 58550 58549 58548 58547 58544 58542 58541 58540 58538 58537 58536 58531 58530 58529 58528 58527 58525 58524 58523 58522 58521 58520 58519 58518 58517 58516 58514 58513 58512 58511 58510 58508 58507 58506 58504 58502 58499 58498 58497 58496 58495 58494 58493 58488 58485 58484 58483 58481 58479 58477 58476 58475 58473 58472 58468 58467 58466 58465 58464 58463 58461 58460 58459 58458 58455 58454 58453 58452 58450 58449 58448 58447 58446 58444 58443 58442 58441 58440 58439 58438 58437 58435 58432 58431 58430 58429 58428 58424 58423 58421 58420 58418 58416 58415 58413 58411 58410 58409 58408 58407 58406 58405 58404 58403 58401 58400 58399 58398 58397 58396 58395 58394 58392 58391 58390 58388 58387 58386 58383 58382 58380 58379 58378 58376 58373 58370 58369 58368 58367 58366 58364 58362 58361 58360 58358 58357 58354 58353 58352 58351 58350 58349 58348 58347 58346 58343 58341 58339 58338 58335 58333 58332 58331 58329 58328 58327 58326 58324 58322 58321 58320 58319 58318 58316 58315 58314 58313 58312 58311 58309 58308 58307 58306 58305 58304 58303 58302 58301 58300 58298 58297 58296 58295 58293 58292 58291 58289 58287 58284 58281 58279 58278 58277 58276 58274 58273 58271 58269 58268 58267 58264 58263 58262 58261 58260 58259 58258 58257 58256 58254 58253 58252 58251 58250 58249 58248 58245 58243 58242 58239 58238 58237 58235 58234 58233 58232 58231 58229 58228 58227 58226 58225 58224 58223 58222 58220 58219 58218 58217 58215 58214 58212 58211 58209 58208 58207 58206 58205 58203 58202 58200 58199 58196 58194 58193 58191 58190 58189 58188 58187 58185 58184 58181 58180 58179 58178 58177 58174 58173 58172 58170 58168 58167 58166 58165 58164 58163 58162 58160 58159 58158 58156 58155 58153 58152 58151 58150 58148 58146 58145 58144 58143 58140 58139 58138 58137 58135 58134 58132 58131 58130 58128 58126 58125 58124 58123 58122 58121 58120 58119 58118 58116 58114 58109 58108 58107 58106 58105 58103 58101 58098 58097 58096 58095 58092 58091 58090 58089 58086 58085 58083 58082 58081 58079 58078 58077 58076 58075 58074 58073 58072 58071 58070 58069 58068 58067 58066 58064 58063 58062 58061 58060 58057 58056 58054 58053 58048 58046 58044 58039 58036 58035 58034 58032 58031 58030 58027 58026 58025 58024 58021 58019 58017 58016 58015 58013 58011 58008 58006 58004 58003 58001 58000 57996 57995 57994 57991 57990 57989 57988 57987 57986 57984 57980 57979 57977 57975 57973 57971 57970 57969 57968 57967 57964 57962 57961 57960 57959 57958 57957 57956 57955 57954 57953 57951 57950 57949 57948 57946 57945 57943 57942 57941 57939 57938 57937 57936 57935 57934 57933 57932 57931 57930 57928 57927 57923 57922 57921 57920 57919 57918 57916 57914 57913 57911 57910 57909 57908 57907 57906 57905 57903 57900 57899 57898 57897 57896 57893 57892 57891 57890 57887 57882 57881 57879 57878 57875 57873 57871 57869 57868 57867 57866 57864 57863 57862 57861 57860 57859 57858 57855 57853 57852 57851 57847 57845 57844 57843 57842 57841 57840 57839 57838 57837 57836 57835 57834 57832 57830 57828 57827 57826 57825 57822 57821 57818 57817 57813 57812 57811 57807 57805 57804 57803 57802 57801 57800 57799 57798 57794 57793 57792 57791 57789 57788 57787 57786 57785 57784 57782 57779 57778 57777 57776 57775 57774 57773 57772 57771 57770 57769 57768 57767 57766 57764 57763 57762 57759 57756 57755 57752 57749 57748 57747 57746 57744 57743 57742 57740 57739 57735 57733 57732 57731 57729 57727 57726 57725 57723 57722 57721 57718 57717 57716 57714 57713 57712 57710 57707 57706 57704 57703 57699 57695 57693 57692 57691 57690 57689 57688 57685 57684 57682 57681 57680 57679 57677 57676 57675 57674 57673 57672 57671 57669 57667 57666 57665 57663 57660 57659 57658 57656 57655 57654 57652 57649 57648 57647 57646 57645 57643 57640 57639 57638 57636 57634 57632 57630 57629 57627 57625 57623 57622 57621 57619 57618 57616 57615 57614 57613 57612 57611 57608 57605 57603 57601 57600 57598 57597 57596 57594 57593 57592 57591 57589 57587 57586 57584 57582 57581 57580 57579 57578 57576 57575 57574 57573 57570 57569 57568 57566 57564 57562 57561 57560 57558 57557 57556 57555 57553 57548 57547 57546 57545 57542 57541 57539 57537 57536 57534 57533 57531 57527 57526 57525 57524 57523 57522 57517 57516 57515 57513 57512 57509 57507 57505 57504 57503 57499 57493 57492 57491 57490 57489 57488 57487 57486 57485 57484 57482 57481 57480 57479 57477 57470 57469 57467 57466 57465 57463 57462 57461 57460 57459 57458 57456 57455 57454 57452 57451 57448 57446 57444 57443 57441 57439 57436 57435 57433 57431 57429 57428 57426 57425 57424 57423 57422 57419 57418 57416 57415 57414 57413 57412 57411 57410 57409 57407 57406 57405 57403 57402 57401 57400 57398 57396 57395 57391 57390 57388 57383 57382 57378 57377 57376 57373 57371 57370 57369 57368 57366 57365 57364 57363 57361 57359 57358 57354 57353 57351 57350 57348 57346 57345 57344 57342 57341 57340 57339 57338 57337 57335 57334 57332 57331 57330 57328 57326 57324 57322 57321 57319 57318 57317 57316 57315 57312 57310 57309 57306 57305 57302 57299 57296 57295 57294 57293 57292 57291 57289 57288 57287 57285 57284 57283 57282 57281 57280 57278 57277 57276 57275 57273 57272 57271 57270 57269 57268 57267 57264 57260 57259 57258 57257 57253 57252 57251 57250 57249 57248 57247 57246 57244 57242 57241 57240 57238 57237 57235 57232 57231 57230 57229 57227 57226 57224 57223 57222 57221 57220 57218 57216 57214 57213 57212 57211 57209 57208 57207 57205 57204 57203 57201 57197 57195 57194 57193 57191 57190 57188 57186 57185 57183 57182 57180 57179 57177 57176 57175 57174 57173 57172 57169 57168 57166 57165 57164 57163 57160 57159 57157 57155 57151 57149 57148 57147 57146 57144 57138 57137 57133 57132 57131 57129 57128 57127 57126 57125 57124 57122 57121 57120 57119 57118 57116 57114 57113 57112 57111 57110 57109 57108 57107 57106 57101 57100 57099 57097 57095 57094 57092 57090 57088 57087 57086 57084 57082 57081 57080 57078 57074 57073 57072 57071 57070 57069 57068 57067 57065 57064 57063 57061 57059 57057 57056 57055 57054 57053 57052 57051 57050 57049 57047 57046 57045 57044 57043 57039 57038 57036 57034 57033 57030 57029 57028 57027 57026 57024 57022 57017 57016 57014 57013 57011 57010 57007 57006 57004 57003 56999 56998 56997 56996 56995 56994 56992 56990 56989 56988 56987 56986 56984 56982 56981 56979 56975 56974 56973 56971 56969 56967 56966 56965 56964 56962 56961 56959 56958 56955 56953 56952 56949 56948 56947 56945 56943 56941 56939 56938 56937 56936 56935 56934 56930 56929 56928 56927 56925 56924 56923 56921 56920 56919 56918 56917 56916 56915 56913 56911 56910 56908 56907 56905 56904 56903 56902 56901 56900 56899 56898 56897 56895 56894 56893 56892 56891 56889 56888 56887 56885 56883 56881 56878 56876 56875 56874 56871 56870 56868 56867 56866 56865 56864 56863 56862 56859 56858 56857 56856 56854 56851 56850 56849 56847 56846 56841 56840 56839 56837 56835 56833 56832 56830 56829 56828 56826 56825 56824 56823 56820 56819 56818 56816 56815 56814 56811 56810 56809 56807 56804 56803 56801 56800 56798 56795 56794 56793 56792 56791 56789 56788 56787 56786 56785 56784 56783 56782 56779 56775 56774 56773 56772 56771 56770 56769 56768 56767 56765 56764 56763 56762 56761 56760 56759 56758 56757 56756 56755 56753 56752 56750 56748 56747 56746 56745 56740 56739 56738 56735 56733 56732 56731 56729 56728 56727 56726 56725 56724 56723 56721 56720 56718 56716 56714 56713 56712 56711 56710 56709 56708 56707 56706 56704 56703 56700 56699 56698 56691 56690 56689 56687 56686 56685 56684 56683 56682 56681 56680 56679 56675 56674 56672 56671 56670 56669 56668 56667 56666 56665 56662 56660 56659 56657 56656 56655 56651 56650 56649 56648 56647 56644 56642 56640 56636 56632 56631 56630 56629 56627 56626 56625 56624 56623 56621 56620 56618 56617 56615 56614 56613 56611 56610 56609 56608 56607 56606 56604 56603 56602 56601 56600 56599 56598 56596 56595 56593 56592 56590 56589 56588 56586 56585 56584 56583 56582 56579 56578 56576 56574 56573 56572 56571 56570 56566 56563 56562 56561 56559 56557 56553 56552 56551 56549 56548 56547 56545 56544 56539 56536 56532 56531 56529 56528 56527 56525 56524 56522 56521 56520 56517 56516 56514 56513 56511 56510 56509 56508 56507 56505 56504 56503 56500 56499 56496 56495 56494 56492 56490 56488 56487 56486 56485 56484 56483 56482 56481 56480 56479 56477 56476 56475 56474 56473 56470 56469 56468 56467 56466 56465 56464 56461 56460 56459 56458 56457 56456 56455 56454 56453 56452 56451 56449 56447 56446 56445 56444 56443 56442 56441 56440 56438 56437 56435 56434 56433 56432 56431 56430 56429 56428 56426 56425 56424 56423 56421 56420 56419 56418 56417 56415 56414 56413 56412 56406 56405 56403 56402 56401 56399 56398 56396 56392 56391 56389 56388 56387 56386 56384 56382 56381 56380 56379 56377 56376 56375 56374 56373 56370 56368 56367 56366 56363 56362 56361 56360 56359 56358 56357 56356 56355 56354 56352 56351 56350 56348 56347 56346 56343 56341 56340 56339 56338 56337 56336 56335 56333 56332 56331 56330 56329 56327 56326 56323 56322 56320 56319 56318 56317 56316 56314 56310 56309 56308 56307 56306 56302 56301 56300 56299 56298 56297 56296 56295 56294 56293 56290 56289 56287 56284 56283 56282 56281 56279 56277 56272 56271 56270 56269 56268 56267 56266 56265 56263 56262 56260 56259 56257 56253 56251 56250 56249 56247 56246 56245 56243 56242 56241 56240 56238 56237 56236 56233 56231 56230 56227 56226 56225 56224 56222 56221 56218 56216 56214 56212 56211 56209 56207 56206 56205 56204 56203 56202 56200 56198 56195 56192 56191 56188 56187 56186 56185 56184 56182 56180 56179 56178 56177 56175 56174 56173 56172 56171 56168 56167 56166 56165 56164 56160 56159 56158 56157 56154 56152 56149 56147 56146 56145 56144 56143 56142 56141 56140 56138 56135 56134 56133 56132 56131 56130 56129 56128 56126 56124 56123 56122 56120 56119 56118 56117 56116 56115 56113 56111 56110 56109 56108 56107 56106 56105 56104 56102 56101 56099 56098 56096 56095 56094 56092 56091 56089 56088 56087 56084 56081 56080 56079 56078 56077 56076 56073 56072 56071 56068 56067 56066 56065 56063 56062 56061 56060 56059 56058 56057 56054 56053 56050 56049 56047 56046 56045 56044 56042 56041 56040 56039 56038 56035 56032 56031 56030 56029 56028 56027 56025 56024 56022 56020 56019 56018 56017 56016 56014 56011 56008 56007 56003 56001 56000 55999 55997 55996 55995 55993 55992 55987 55986 55983 55982 55981 55979 55978 55976 55975 55972 55971 55968 55967 55966 55965 55962 55959 55957 55956 55955 55954 55953 55950 55949 55947 55946 55943 55941 55940 55939 55936 55935 55934 55933 55931 55928 55926 55925 55924 55922 55920 55919 55916 55915 55914 55911 55910 55909 55908 55906 55904 55903 55902 55901 55900 55897 55896 55895 55894 55893 55892 55891 55890 55888 55887 55886 55885 55884 55883 55880 55879 55878 55877 55875 55874 55872 55869 55868 55866 55864 55863 55862 55859 55857 55856 55855 55852 55851 55850 55849 55847 55846 55845 55842 55839 55838 55837 55835 55834 55833 55832 55831 55830 55829 55828 55827 55825 55823 55820 55819 55817 55816 55815 55814 55813 55811 55808 55806 55805 55801 55800 55799 55798 55797 55795 55794 55793 55792 55790 55789 55788 55787 55786 55785 55782 55780 55779 55778 55777 55776 55775 55774 55773 55772 55771 55770 55769 55768 55767 55766 55763 55761 55760 55758 55757 55756 55755 55753 55752 55750 55748 55747 55745 55744 55743 55742 55737 55736 55733 55732 55730 55728 55727 55725 55724 55723 55722 55721 55720 55719 55718 55717 55716 55715 55714 55713 55712 55710 55709 55708 55706 55705 55703 55702 55701 55698 55697 55696 55695 55694 55693 55689 55687 55685 55683 55681 55680 55679 55677 55676 55675 55674 55671 55670 55669 55668 55667 55666 55665 55664 55663 55662 55661 55659 55658 55656 55655 55654 55653 55650 55649 55647 55646 55645 55644 55643 55642 55640 55639 55638 55636 55635 55633 55631 55629 55628 55626 55625 55624 55622 55621 55619 55618 55616 55613 55612 55611 55610 55609 55608 55607 55606 55605 55603 55602 55601 55599 55598 55597 55596 55593 55592 55591 55590 55587 55585 55583 55582 55581 55580 55578 55577 55576 55575 55574 55572 55571 55570 55569 55568 55567 55565 55564 55562 55561 55560 55559 55556 55555 55553 55552 55551 55550 55548 55547 55546 55545 55539 55538 55537 55536 55535 55534 55532 55531 55529 55527 55526 55525 55523 55522 55521 55520 55518 55517 55516 55515 55514 55513 55512 55510 55509 55508 55506 55505 55504 55503 55500 55499 55498 55497 55496 55495 55494 55491 55490 55489 55488 55487 55485 55484 55483 55482 55481 55480 55479 55478 55477 55475 55474 55472 55471 55469 55468 55467 55466 55465 55463 55462 55460 55459 55457 55454 55453 55451 55448 55447 55446 55444 55443 55442 55438 55437 55435 55433 55432 55431 55430 55428 55427 55424 55423 55422 55420 55418 55417 55416 55411 55410 55408 55407 55406 55405 55404 55403 55401 55400 55399 55398 55397 55396 55395 55393 55392 55390 55389 55388 55387 55386 55385 55383 55382 55380 55378 55377 55376 55374 55373 55372 55371 55370 55369 55368 55367 55366 55365 55364 55362 55360 55358 55357 55356 55354 55350 55349 55347 55346 55345 55344 55343 55342 55341 55340 55338 55337 55336 55334 55333 55332 55330 55328 55327 55325 55321 55319 55317 55316 55315 55314 55313 55312 55311 55309 55308 55306 55305 55304 55302 55300 55299 55297 55295 55291 55290 55289 55288 55287 55286 55285 55283 55281 55280 55279 55278 55277 55275 55274 55273 55271 55270 55269 55268 55266 55264 55261 55260 55259 55256 55255 55254 55253 55251 55250 55248 55247 55246 55245 55243 55242 55241 55240 55239 55237 55236 55235 55234 55233 55231 55230 55229 55228 55226 55223 55222 55221 55218 55216 55215 55214 55213 55210 55209 55208 55207 55206 55204 55203 55201 55198 55195 55192 55191 55190 55189 55188 55186 55181 55180 55177 55176 55175 55173 55172 55170 55168 55167 55166 55165 55164 55163 55162 55161 55159 55158 55156 55155 55153 55151 55149 55148 55147 55145 55144 55141 55140 55139 55137 55136 55134 55133 55132 55131 55130 55129 55126 55124 55122 55121 55119 55118 55115 55114 55113 55111 55110 55108 55107 55106 55105 55104 55102 55100 55099 55098 55097 55096 55095 55093 55091 55090 55087 55086 55084 55083 55082 55081 55079 55078 55076 55075 55074 55073 55072 55071 55069 55068 55067 55066 55065 55064 55063 55062 55059 55058 55057 55056 55055 55054 55053 55050 55048 55047 55046 55045 55043 55040 55039 55038 55036 55034 55033 55032 55031 55029 55028 55026 55025 55023 55022 55020 55019 55018 55016 55015 55014 55013 55012 55011 55010 55009 55008 55007 55006 55005 55004 55000 54999 54998 54997 54995 54994 54993 54991 54990 54987 54986 54985 54984 54983 54981 54980 54979 54977 54976 54975 54973 54972 54971 54970 54969 54967 54966 54964 54963 54960 54957 54956 54955 54954 54953 54952 54951 54948 54947 54946 54945 54943 54942 54941 54940 54939 54936 54935 54934 54933 54931 54930 54926 54925 54924 54923 54922 54921 54919 54917 54916 54914 54913 54912 54911 54909 54908 54907 54906 54905 54904 54900 54898 54896 54893 54892 54891 54887 54885 54884 54883 54882 54881 54880 54879 54878 54877 54871 54870 54869 54868 54865 54863 54862 54859 54858 54856 54853 54852 54851 54848 54847 54846 54845 54844 54843 54839 54838 54837 54836 54835 54834 54831 54829 54827 54826 54822 54820 54817 54814 54813 54809 54808 54807 54805 54803 54801 54800 54799 54798 54797 54796 54794 54793 54792 54791 54788 54784 54782 54780 54775 54774 54773 54771 54769 54768 54767 54765 54763 54761 54759 54755 54754 54753 54751 54749 54748 54747 54746 54744 54743 54742 54741 54740 54739 54738 54737 54734 54733 54730 54728 54727 54726 54724 54723 54722 54721 54720 54719 54718 54713 54711 54710 54709 54708 54706 54705 54704 54703 54702 54701 54699 54698 54697 54696 54695 54693 54689 54680 54678 54677 54676 54675 54674 54673 54672 54671 54670 54669 54668 54667 54663 54662 54660 54659 54657 54656 54655 54653 54652 54651 54649 54648 54647 54646 54645 54644 54641 54639 54637 54636 54635 54630 54629 54628 54627 54626 54625 54624 54623 54622 54621 54619 54616 54614 54613 54612 54610 54609 54606 54605 54604 54603 54602 54601 54600 54599 54598 54597 54596 54594 54593 54590 54589 54588 54587 54586 54585 54584 54582 54581 54579 54578 54577 54576 54575 54573 54570 54569 54568 54567 54566 54565 54563 54562 54561 54560 54559 54558 54557 54556 54555 54554 54553 54550 54549 54548 54547 54545 54544 54542 54541 54539 54538 54536 54535 54534 54533 54532 54530 54525 54524 54523 54522 54521 54520 54516 54515 54512 54511 54510 54509 54507 54502 54501 54499 54497 54496 54494 54493 54492 54491 54489 54488 54486 54485 54484 54483 54481 54480 54479 54478 54476 54475 54474 54473 54472 54471 54469 54468 54467 54465 54464 54463 54462 54460 54459 54458 54456 54454 54453 54450 54449 54447 54445 54444 54443 54441 54440 54439 54438 54435 54433 54432 54431 54426 54425 54424 54422 54421 54420 54418 54417 54415 54413 54411 54410 54409 54407 54406 54405 54402 54399 54398 54397 54396 54395 54392 54390 54387 54386 54384 54383 54382 54381 54380 54379 54376 54373 54371 54370 54368 54367 54366 54364 54363 54361 54360 54357 54356 54355 54354 54353 54352 54347 54345 54343 54337 54336 54335 54334 54333 54331 54330 54329 54328 54327 54326 54325 54324 54323 54322 54320 54319 54318 54317 54313 54312 54311 54310 54308 54307 54306 54304 54303 54302 54300 54299 54297 54294 54291 54290 54287 54286 54284 54283 54280 54279 54277 54276 54275 54274 54271 54270 54269 54268 54267 54266 54261 54260 54259 54258 54256 54255 54254 54252 54251 54250 54249 54248 54247 54246 54244 54243 54241 54240 54239 54238 54234 54230 54229 54228 54227 54226 54225 54223 54222 54221 54220 54219 54217 54215 54213 54212 54211 54210 54208 54207 54205 54203 54201 54200 54199 54198 54196 54194 54193 54192 54191 54189 54188 54187 54186 54185 54183 54181 54180 54178 54177 54176 54174 54173 54172 54171 54170 54169 54168 54167 54166 54163 54162 54161 54160 54159 54157 54156 54155 54154 54153 54151 54150 54149 54148 54147 54145 54144 54142 54141 54140 54139 54137 54136 54134 54133 54130 54128 54127 54126 54125 54124 54123 54122 54119 54117 54116 54114 54113 54112 54111 54108 54107 54104 54103 54102 54101 54099 54097 54096 54094 54093 54092 54091 54090 54089 54087 54085 54084 54083 54081 54080 54078 54077 54076 54075 54073 54071 54070 54069 54066 54065 54063 54061 54060 54059 54056 54055 54053 54052 54051 54049 54048 54047 54045 54044 54043 54042 54041 54040 54039 54038 54034 54033 54032 54031 54029 54028 54027 54026 54025 54021 54020 54019 54017 54016 54015 54014 54013 54012 54010 54009 54008 54007 54006 54004 54002 53998 53997 53994 53992 53989 53988 53987 53986 53983 53982 53981 53980 53979 53977 53976 53974 53973 53972 53971 53969 53968 53967 53965 53962 53961 53955 53952 53951 53949 53947 53946 53945 53940 53938 53937 53936 53935 53933 53932 53931 53930 53928 53927 53926 53925 53924 53923 53922 53921 53920 53919 53918 53917 53916 53914 53913 53912 53911 53909 53908 53907 53905 53903 53902 53901 53900 53899 53898 53893 53892 53891 53889 53888 53887 53886 53885 53883 53882 53881 53880 53879 53878 53877 53876 53874 53873 53868 53867 53864 53863 53862 53861 53859 53858 53857 53855 53852 53850 53847 53846 53845 53842 53841 53840 53839 53837 53836 53834 53832 53831 53830 53829 53828 53827 53826 53825 53824 53823 53822 53821 53820 53819 53818 53817 53816 53815 53814 53812 53809 53808 53807 53806 53804 53803 53801 53800 53799 53798 53797 53796 53794 53793 53792 53791 53789 53788 53786 53785 53784 53783 53782 53781 53779 53778 53777 53776 53775 53774 53773 53772 53770 53769 53768 53767 53766 53764 53763 53762 53761 53759 53758 53756 53755 53754 53753 53752 53751 53750 53749 53748 53746 53745 53744 53743 53742 53741 53740 53738 53736 53735 53734 53730 53727 53725 53723 53722 53721 53719 53718 53717 53715 53714 53713 53712 53711 53710 53708 53707 53705 53704 53701 53697 53694 53692 53690 53689 53688 53687 53686 53685 53684 53683 53682 53680 53679 53678 53677 53676 53675 53674 53673 53671 53670 53669 53668 53663 53661 53660 53659 53658 53657 53656 53654 53652 53651 53650 53649 53648 53646 53643 53639 53638 53637 53636 53635 53634 53631 53630 53628 53627 53626 53625 53623 53622 53621 53620 53619 53618 53617 53616 53614 53613 53610 53609 53607 53604 53602 53601 53599 53597 53595 53594 53593 53592 53590 53588 53579 53578 53577 53576 53575 53573 53571 53570 53569 53568 53566 53564 53563 53562 53561 53560 53559 53558 53557 53555 53554 53553 53552 53551 53550 53548 53547 53546 53545 53544 53543 53539 53538 53537 53536 53535 53533 53532 53531 53530 53526 53523 53520 53519 53516 53515 53511 53510 53509 53508 53507 53506 53505 53504 53503 53501 53499 53497 53496 53495 53494 53490 53489 53488 53487 53486 53485 53484 53483 53481 53479 53473 53472 53470 53467 53466 53465 53461 53460 53459 53456 53454 53453 53452 53451 53449 53448 53447 53446 53443 53442 53441 53440 53439 53437 53436 53435 53434 53432 53431 53430 53429 53427 53425 53422 53419 53418 53417 53416 53414 53413 53412 53411 53410 53409 53408 53405 53402 53401 53399 53398 53397 53395 53394 53393 53392 53390 53389 53387 53386 53383 53382 53381 53378 53377 53376 53375 53374 53373 53371 53369 53368 53366 53365 53364 53363 53361 53360 53359 53357 53356 53355 53354 53353 53351 53350 53349 53346 53345 53344 53342 53341 53340 53339 53338 53336 53335 53334 53332 53330 53329 53327 53326 53325 53324 53323 53322 53321 53320 53317 53316 53315 53314 53311 53310 53309 53308 53306 53305 53304 53303 53301 53300 53297 53295 53294 53293 53291 53290 53288 53287 53286 53285 53281 53280 53279 53278 53277 53276 53275 53274 53273 53272 53271 53267 53266 53265 53264 53263 53262 53261 53260 53256 53254 53253 53251 53250 53249 53248 53247 53246 53244 53243 53242 53241 53240 53238 53237 53236 53234 53233 53232 53231 53229 53228 53227 53226 53223 53222 53220 53219 53218 53217 53216 53215 53214 53212 53211 53210 53206 53203 53200 53199 53197 53196 53195 53193 53192 53191 53190 53188 53187 53186 53185 53184 53182 53181 53177 53176 53175 53173 53172 53170 53168 53167 53166 53165 53164 53163 53162 53159 53156 53155 53154 53153 53151 53149 53148 53147 53143 53142 53140 53139 53138 53136 53134 53133 53132 53131 53130 53129 53128 53127 53126 53125 53124 53123 53121 53120 53119 53116 53115 53114 53112 53111 53110 53109 53108 53107 53106 53105 53103 53102 53101 53098 53097 53096 53094 53093 53091 53089 53088 53087 53086 53085 53084 53082 53081 53078 53075 53074 53069 53066 53065 53064 53061 53060 53058 53057 53056 53055 53053 53052 53050 53048 53046 53045 53044 53042 53041 53040 53038 53037 53035 53034 53033 53032 53030 53028 53027 53026 53025 53023 53021 53019 53018 53017 53015 53014 53011 53009 53005 53003 53002 53001 52999 52998 52997 52996 52995 52994 52993 52992 52991 52990 52989 52987 52983 52982 52980 52974 52973 52972 52971 52966 52964 52963 52962 52961 52959 52957 52956 52955 52954 52952 52951 52948 52947 52946 52945 52941 52940 52939 52937 52934 52932 52930 52929 52928 52927 52926 52925 52924 52923 52916 52914 52913 52906 52905 52904 52902 52901 52899 52898 52897 52896 52895 52894 52893 52892 52891 52890 52889 52887 52886 52884 52883 52881 52880 52879 52878 52876 52875 52874 52873 52871 52870 52868 52867 52866 52865 52864 52863 52861 52859 52858 52857 52856 52855 52853 52852 52851 52850 52849 52848 52844 52843 52842 52841 52838 52837 52836 52835 52833 52831 52829 52828 52826 52825 52823 52817 52816 52815 52814 52813 52812 52807 52806 52803 52802 52801 52799 52798 52791 52790 52789 52788 52787 52786 52785 52784 52783 52782 52780 52778 52777 52776 52774 52773 52771 52770 52768 52767 52763 52762 52761 52760 52759 52758 52757 52756 52755 52754 52751 52750 52749 52748 52747 52746 52745 52744 52741 52740 52738 52737 52736 52734 52729 52726 52725 52724 52723 52722 52721 52720 52719 52716 52715 52714 52713 52712 52711 52710 52709 52708 52707 52705 52702 52700 52699 52697 52696 52695 52694 52693 52691 52690 52688 52687 52685 52684 52683 52682 52681 52680 52678 52677 52676 52673 52672 52670 52669 52668 52667 52666 52665 52663 52662 52661 52659 52658 52656 52654 52653 52652 52651 52650 52649 52648 52647 52646 52638 52637 52636 52634 52633 52632 52631 52629 52628 52625 52624 52623 52621 52619 52618 52616 52614 52613 52608 52607 52606 52605 52604 52601 52600 52599 52598 52597 52596 52594 52593 52590 52589 52587 52586 52584 52583 52582 52581 52580 52579 52577 52575 52574 52572 52571 52570 52567 52566 52564 52561 52559 52558 52555 52554 52553 52552 52551 52550 52549 52547 52546 52544 52543 52542 52541 52540 52539 52537 52536 52533 52532 52530 52528 52527 52525 52524 52523 52522 52521 52520 52519 52518 52516 52514 52511 52509 52507 52506 52505 52502 52501 52500 52499 52498 52496 52495 52494 52492 52491 52490 52488 52487 52485 52484 52483 52481 52479 52478 52476 52475 52474 52473 52472 52471 52470 52469 52468 52467 52465 52464 52462 52460 52458 52457 52455 52454 52452 52450 52448 52446 52445 52443 52440 52438 52437 52436 52434 52433 52432 52428 52422 52421 52420 52419 52418 52417 52414 52413 52412 52411 52410 52409 52407 52405 52404 52403 52402 52400 52399 52398 52397 52396 52393 52391 52388 52387 52385 52384 52383 52381 52380 52379 52375 52374 52373 52371 52370 52369 52368 52367 52365 52364 52363 52361 52360 52358 52357 52355 52354 52353 52352 52351 52349 52348 52346 52344 52340 52339 52337 52336 52334 52332 52331 52330 52328 52327 52326 52324 52322 52321 52320 52317 52316 52313 52310 52309 52307 52306 52304 52301 52299 52298 52297 52296 52295 52292 52289 52287 52285 52284 52283 52282 52281 52279 52278 52275 52273 52270 52269 52268 52266 52263 52262 52261 52260 52259 52258 52256 52254 52253 52252 52248 52247 52246 52245 52244 52241 52240 52239 52237 52236 52235 52231 52229 52228 52226 52225 52224 52223 52222 52221 52220 52218 52216 52214 52212 52210 52209 52208 52205 52204 52203 52202 52201 52200 52199 52198 52197 52196 52194 52191 52189 52187 52186 52185 52184 52183 52182 52181 52179 52178 52171 52166 52165 52164 52162 52159 52158 52157 52156 52155 52153 52150 52149 52148 52147 52145 52143 52142 52140 52139 52137 52136 52135 52134 52133 52132 52131 52129 52128 52126 52125 52124 52123 52122 52120 52114 52113 52112 52111 52109 52107 52106 52105 52104 52103 52102 52099 52098 52097 52096 52095 52094 52093 52090 52089 52088 52087 52084 52083 52082 52081 52080 52078 52077 52076 52075 52073 52072 52071 52069 52068 52067 52065 52063 52062 52058 52057 52055 52053 52052 52051 52049 52045 52044 52043 52042 52041 52036 52035 52034 52033 52032 52030 52029 52028 52027 52025 52024 52022 52020 52019 52018 52017 52016 52015 52014 52012 52011 52010 52009 52008 52006 52004 52003 52002 52000 51999 51998 51996 51992 51990 51989 51988 51986 51984 51983 51981 51977 51975 51974 51973 51972 51969 51967 51966 51965 51964 51963 51962 51961 51959 51958 51957 51955 51954 51953 51952 51951 51948 51947 51946 51944 51943 51942 51941 51939 51936 51935 51933 51931 51929 51928 51927 51926 51925 51924 51923 51922 51920 51919 51918 51917 51916 51914 51913 51912 51911 51908 51907 51906 51905 51903 51902 51901 51900 51897 51896 51895 51894 51893 51891 51888 51887 51885 51884 51882 51880 51879 51878 51877 51876 51875 51872 51871 51870 51869 51866 51865 51863 51862 51857 51855 51853 51852 51848 51844 51843 51841 51840 51839 51837 51835 51832 51831 51828 51827 51826 51822 51821 51817 51815 51814 51813 51811 51810 51809 51804 51803 51802 51800 51799 51796 51795 51794 51793 51792 51791 51790 51789 51788 51787 51786 51785 51783 51782 51781 51780 51779 51776 51775 51774 51772 51769 51767 51765 51764 51763 51762 51761 51760 51759 51755 51754 51752 51750 51748 51747 51745 51744 51743 51741 51739 51738 51737 51736 51735 51732 51731 51729 51726 51725 51724 51723 51722 51721 51720 51719 51718 51716 51711 51709 51707 51705 51701 51700 51699 51696 51695 51694 51692 51691 51690 51689 51686 51684 51683 51682 51681 51680 51679 51678 51677 51674 51673 51672 51671 51670 51669 51668 51667 51662 51661 51660 51658 51656 51655 51654 51653 51651 51650 51647 51646 51645 51643 51642 51641 51640 51639 51638 51637 51636 51634 51633 51632 51630 51629 51628 51626 51625 51623 51620 51618 51617 51616 51615 51613 51612 51611 51609 51608 51607 51605 51604 51603 51602 51601 51600 51599 51598 51597 51596 51595 51594 51591 51590 51588 51587 51585 51582 51581 51579 51578 51575 51574 51573 51571 51570 51569 51568 51566 51565 51564 51560 51559 51557 51556 51555 51553 51551 51550 51549 51547 51546 51545 51543 51541 51538 51536 51535 51534 51528 51526 51525 51524 51523 51522 51521 51518 51517 51516 51515 51514 51513 51512 51511 51510 51509 51507 51505 51502 51501 51500 51499 51497 51494 51492 51489 51488 51487 51486 51484 51483 51481 51480 51477 51476 51475 51474 51473 51469 51468 51467 51466 51463 51462 51460 51459 51458 51455 51453 51452 51451 51450 51448 51444 51442 51440 51439 51437 51436 51434 51433 51432 51431 51429 51428 51426 51424 51422 51421 51420 51419 51418 51417 51413 51412 51411 51410 51409 51407 51405 51402 51401 51400 51398 51396 51393 51391 51389 51388 51386 51385 51384 51383 51380 51379 51378 51377 51373 51372 51371 51369 51366 51365 51364 51363 51362 51361 51359 51358 51357 51356 51354 51352 51350 51349 51347 51346 51345 51343 51342 51341 51340 51339 51338 51336 51335 51333 51332 51331 51330 51329 51328 51327 51325 51324 51322 51321 51320 51319 51318 51314 51313 51312 51311 51309 51305 51304 51303 51302 51300 51299 51297 51296 51294 51293 51291 51290 51288 51287 51286 51284 51283 51282 51280 51279 51278 51277 51276 51274 51272 51271 51269 51268 51267 51264 51263 51262 51261 51260 51259 51258 51257 51256 51255 51254 51252 51251 51250 51248 51246 51244 51243 51242 51240 51238 51235 51233 51232 51231 51230 51228 51227 51225 51222 51221 51218 51217 51216 51215 51214 51210 51208 51207 51205 51204 51202 51201 51199 51198 51197 51196 51195 51194 51193 51192 51189 51188 51187 51186 51184 51183 51182 51181 51180 51179 51176 51175 51172 51171 51169 51168 51167 51162 51160 51159 51157 51155 51154 51153 51152 51151 51150 51149 51148 51147 51145 51141 51140 51139 51138 51137 51135 51134 51133 51132 51130 51129 51127 51126 51125 51124 51123 51120 51119 51118 51117 51116 51113 51112 51110 51109 51108 51107 51106 51105 51102 51101 51099 51097 51096 51094 51093 51092 51090 51089 51088 51087 51086 51085 51084 51083 51080 51077 51075 51072 51071 51068 51067 51066 51063 51061 51059 51056 51055 51052 51051 51050 51048 51047 51045 51044 51042 51041 51040 51038 51037 51034 51032 51029 51028 51027 51024 51023 51021 51020 51018 51017 51015 51010 51009 51005 51004 51003 51002 51001 50999 50998 50996 50995 50994 50993 50992 50991 50990 50989 50988 50986 50985 50984 50983 50982 50981 50980 50979 50978 50973 50972 50971 50970 50968 50965 50964 50963 50961 50960 50959 50958 50957 50955 50954 50952 50951 50950 50949 50947 50945 50944 50943 50942 50939 50938 50937 50936 50934 50933 50932 50931 50930 50929 50928 50927 50926 50924 50923 50922 50919 50918 50917 50916 50915 50914 50911 50910 50905 50901 50900 50899 50897 50894 50893 50892 50890 50889 50888 50886 50884 50880 50879 50877 50876 50874 50873 50872 50871 50870 50867 50866 50864 50863 50861 50860 50858 50857 50856 50854 50852 50850 50848 50847 50846 50845 50844 50843 50841 50840 50839 50838 50837 50834 50833 50831 50828 50827 50826 50825 50823 50822 50820 50819 50817 50816 50815 50814 50813 50812 50811 50810 50808 50807 50806 50805 50804 50803 50802 50799 50798 50797 50796 50795 50793 50792 50790 50789 50785 50784 50782 50781 50776 50775 50774 50773 50771 50769 50768 50767 50766 50765 50762 50761 50760 50759 50758 50756 50755 50754 50751 50749 50748 50747 50745 50743 50742 50741 50740 50739 50734 50733 50732 50729 50728 50727 50725 50721 50720 50719 50718 50717 50716 50715 50714 50713 50712 50711 50710 50709 50708 50706 50705 50703 50702 50699 50698 50697 50696 50694 50693 50692 50691 50690 50689 50688 50687 50686 50684 50681 50680 50679 50676 50675 50674 50672 50671 50670 50669 50668 50666 50665 50664 50663 50661 50659 50658 50657 50655 50654 50653 50650 50649 50645 50642 50641 50638 50636 50634 50632 50630 50629 50628 50627 50626 50623 50622 50621 50620 50618 50614 50613 50612 50611 50608 50605 50604 50603 50602 50600 50598 50597 50595 50594 50593 50592 50591 50590 50589 50587 50586 50585 50583 50581 50580 50579 50578 50577 50575 50571 50570 50569 50566 50565 50564 50563 50562 50561 50558 50554 50552 50551 50550 50548 50546 50544 50543 50540 50539 50537 50536 50535 50534 50533 50532 50531 50528 50525 50524 50522 50519 50518 50515 50514 50511 50510 50508 50507 50505 50504 50501 50499 50498 50496 50493 50489 50486 50485 50484 50482 50481 50479 50478 50477 50476 50475 50474 50473 50472 50471 50470 50469 50468 50467 50466 50465 50464 50463 50462 50461 50460 50459 50458 50455 50453 50451 50450 50449 50447 50446 50445 50444 50442 50441 50439 50436 50434 50433 50432 50430 50429 50426 50421 50420 50419 50418 50416 50415 50413 50412 50411 50410 50408 50407 50404 50400 50398 50397 50395 50394 50389 50388 50387 50386 50385 50384 50383 50382 50379 50378 50375 50374 50373 50372 50370 50368 50365 50364 50362 50360 50359 50353 50352 50351 50350 50347 50346 50344 50343 50342 50339 50338 50336 50335 50334 50333 50332 50331 50330 50328 50327 50326 50325 50323 50322 50317 50316 50315 50311 50310 50309 50308 50307 50306 50305 50304 50303 50302 50301 50300 50299 50298 50297 50296 50295 50294 50292 50291 50289 50288 50287 50285 50282 50280 50279 50278 50277 50276 50272 50271 50270 50269 50268 50267 50265 50263 50260 50257 50255 50254 50253 50252 50247 50246 50245 50244 50240 50239 50238 50237 50236 50235 50234 50233 50231 50230 50228 50226 50225 50224 50223 50221 50220 50219 50217 50216 50210 50208 50207 50204 50203 50201 50200 50199 50198 50197 50196 50195 50194 50193 50192 50190 50189 50188 50187 50185 50183 50182 50177 50176 50175 50174 50173 50172 50171 50170 50167 50166 50163 50159 50158 50157 50156 50155 50154 50153 50152 50150 50148 50147 50146 50145 50144 50143 50142 50140 50139 50137 50136 50133 50132 50131 50129 50128 50127 50126 50125 50124 50123 50122 50121 50120 50118 50117 50115 50114 50113 50112 50111 50110 50109 50108 50107 50105 50104 50103 50102 50100 50098 50097 50095 50094 50090 50089 50087 50086 50084 50082 50081 50080 50077 50075 50074 50073 50072 50070 50069 50066 50064 50063 50061 50059 50058 50057 50056 50055 50054 50053 50051 50050 50049 50048 50047 50045 50044 50042 50041 50040 50037 50034 50033 50032 50031 50029 50028 50027 50025 50022 50021 50018 50017 50016 50015 50014 50013 50012 50010 50009 50007 50006 50004 50003 50002 50000 49999 49998 49996 49995 49993 49991 49989 49988 49987 49986 49985 49984 49983 49982 49981 49980 49979 49978 49977 49975 49974 49973 49972 49971 49967 49966 49963 49962 49958 49957 49956 49953 49950 49949 49947 49946 49944 49943 49942 49941 49940 49939 49936 49935 49933 49932 49931 49929 49928 49927 49924 49922 49920 49918 49916 49915 49914 49911 49909 49907 49906 49905 49903 49901 49900 49899 49898 49897 49896 49895 49894 49893 49892 49890 49889 49886 49884 49883 49882 49880 49878 49877 49875 49874 49871 49870 49869 49868 49867 49866 49865 49864 49862 49861 49860 49858 49855 49854 49853 49852 49851 49850 49849 49848 49847 49845 49844 49841 49839 49835 49834 49831 49830 49829 49826 49825 49823 49822 49821 49820 49817 49816 49815 49814 49813 49812 49811 49810 49807 49806 49805 49803 49801 49799 49798 49797 49796 49795 49793 49791 49789 49787 49785 49783 49782 49781 49780 49779 49777 49776 49775 49774 49773 49772 49771 49770 49768 49767 49765 49764 49763 49762 49761 49760 49759 49756 49755 49753 49751 49750 49749 49748 49746 49745 49744 49743 49741 49740 49739 49738 49737 49736 49735 49733 49732 49731 49730 49729 49728 49727 49725 49724 49723 49721 49718 49713 49712 49711 49710 49708 49706 49705 49704 49702 49700 49697 49695 49694 49693 49692 49691 49690 49689 49687 49684 49682 49681 49680 49679 49678 49676 49675 49674 49673 49672 49670 49669 49668 49667 49666 49665 49664 49663 49661 49659 49657 49656 49655 49654 49653 49648 49646 49645 49644 49642 49640 49639 49638 49637 49636 49634 49633 49631 49630 49628 49625 49624 49622 49617 49616 49615 49614 49613 49609 49608 49607 49606 49602 49598 49597 49590 49585 49584 49583 49582 49581 49580 49579 49578 49576 49575 49574 49573 49572 49570 49569 49568 49567 49566 49564 49563 49560 49558 49557 49553 49552 49548 49547 49546 49543 49540 49539 49538 49536 49534 49533 49532 49531 49530 49529 49528 49527 49526 49525 49524 49523 49522 49518 49514 49513 49512 49511 49510 49509 49508 49507 49506 49505 49501 49499 49496 49495 49490 49487 49484 49482 49481 49479 49477 49475 49473 49472 49471 49469 49468 49466 49465 49464 49461 49460 49458 49457 49455 49453 49451 49450 49449 49448 49447 49446 49445 49444 49443 49441 49439 49438 49437 49433 49432 49430 49428 49427 49426 49423 49422 49419 49417 49416 49415 49413 49412 49411 49409 49408 49407 49406 49405 49404 49403 49402 49401 49399 49398 49397 49396 49394 49393 49392 49391 49390 49387 49386 49385 49383 49382 49379 49378 49377 49376 49375 49373 49372 49371 49370 49368 49367 49365 49364 49362 49361 49360 49359 49358 49354 49353 49350 49349 49348 49346 49345 49344 49343 49342 49340 49336 49335 49333 49332 49331 49330 49329 49327 49326 49325 49324 49321 49320 49319 49317 49315 49314 49311 49309 49305 49304 49302 49301 49300 49299 49297 49296 49294 49293 49292 49291 49289 49288 49287 49286 49285 49283 49282 49281 49280 49279 49278 49277 49276 49275 49274 49270 49269 49268 49267 49266 49265 49264 49263 49262 49261 49260 49259 49258 49256 49255 49254 49253 49252 49251 49250 49249 49248 49247 49246 49243 49242 49241 49240 49239 49238 49237 49235 49234 49233 49231 49229 49228 49227 49224 49217 49216 49215 49214 49212 49210 49209 49208 49206 49205 49202 49198 49195 49194 49192 49191 49190 49189 49188 49185 49183 49182 49181 49180 49179 49178 49177 49176 49175 49174 49173 49172 49171 49170 49169 49167 49165 49164 49162 49161 49160 49159 49158 49157 49155 49154 49153 49152 49150 49148 49146 49145 49144 49142 49140 49139 49137 49135 49134 49131 49129 49128 49127 49126 49124 49123 49121 49119 49118 49117 49112 49111 49110 49109 49108 49107 49106 49104 49103 49101 49100 49095 49094 49093 49091 49090 49089 49088 49087 49086 49085 49083 49081 49079 49078 49074 49073 49072 49071 49069 49068 49066 49065 49064 49063 49062 49060 49059 49058 49057 49056 49055 49054 49052 49051 49049 49047 49045 49042 49040 49039 49038 49037 49035 49034 49032 49031 49029 49026 49025 49024 49022 49020 49019 49017 49016 49015 49014 49013 49012 49011 49009 49007 49005 49004 49001 49000 48998 48997 48996 48993 48992 48990 48987 48984 48982 48981 48978 48975 48973 48972 48971 48969 48967 48966 48964 48963 48962 48961 48959 48958 48957 48956 48955 48953 48952 48951 48950 48948 48945 48944 48943 48942 48941 48940 48939 48938 48937 48934 48933 48932 48931 48930 48929 48928 48926 48924 48923 48922 48920 48918 48916 48915 48914 48913 48912 48911 48910 48909 48908 48907 48905 48903 48901 48900 48899 48898 48897 48896 48895 48894 48892 48889 48888 48887 48886 48885 48883 48882 48881 48880 48879 48878 48875 48874 48872 48871 48870 48869 48867 48866 48865 48864 48863 48862 48861 48860 48859 48856 48853 48852 48850 48848 48845 48844 48842 48841 48840 48839 48837 48835 48834 48832 48831 48830 48826 48824 48823 48821 48818 48817 48816 48815 48813 48811 48810 48807 48806 48805 48804 48803 48802 48801 48800 48799 48798 48797 48796 48795 48793 48792 48787 48785 48784 48782 48780 48779 48777 48776 48775 48774 48773 48772 48771 48770 48769 48768 48765 48764 48762 48760 48759 48757 48755 48754 48753 48752 48751 48750 48749 48747 48746 48745 48744 48743 48742 48740 48737 48736 48735 48733 48732 48731 48730 48729 48728 48725 48724 48722 48721 48719 48718 48717 48716 48715 48714 48713 48712 48710 48709 48708 48707 48706 48705 48703 48702 48699 48696 48695 48693 48692 48691 48689 48688 48687 48685 48683 48682 48681 48678 48676 48675 48674 48673 48672 48671 48668 48667 48666 48665 48663 48662 48660 48659 48658 48657 48656 48655 48654 48653 48651 48650 48648 48647 48646 48645 48642 48641 48640 48639 48638 48637 48635 48634 48633 48631 48630 48628 48627 48626 48625 48624 48623 48620 48619 48618 48617 48615 48613 48612 48611 48610 48609 48608 48605 48604 48602 48601 48599 48597 48594 48593 48592 48591 48590 48589 48588 48587 48585 48584 48583 48582 48581 48580 48578 48577 48576 48575 48573 48571 48570 48569 48567 48566 48563 48562 48560 48559 48557 48555 48553 48551 48548 48547 48544 48543 48542 48540 48539 48538 48534 48528 48525 48524 48523 48522 48521 48520 48519 48518 48515 48514 48513 48512 48511 48510 48509 48508 48506 48505 48504 48502 48501 48498 48497 48495 48494 48492 48491 48488 48487 48486 48485 48484 48483 48481 48480 48478 48477 48476 48475 48474 48473 48470 48469 48468 48467 48466 48465 48464 48462 48461 48460 48458 48455 48454 48453 48452 48451 48449 48448 48447 48446 48444 48443 48442 48440 48439 48436 48435 48434 48432 48430 48428 48426 48425 48424 48422 48421 48420 48419 48418 48417 48416 48415 48413 48412 48411 48410 48409 48408 48407 48406 48405 48404 48403 48402 48401 48400 48398 48397 48395 48393 48392 48391 48390 48388 48387 48386 48383 48381 48379 48378 48377 48376 48375 48374 48373 48372 48368 48366 48365 48363 48362 48361 48360 48358 48356 48354 48353 48352 48350 48349 48348 48346 48345 48344 48343 48342 48341 48340 48339 48338 48336 48333 48331 48330 48329 48327 48325 48323 48321 48320 48319 48318 48317 48316 48315 48314 48313 48312 48310 48308 48307 48306 48305 48304 48303 48302 48301 48299 48297 48296 48295 48294 48292 48290 48289 48286 48285 48281 48279 48278 48277 48276 48274 48273 48272 48271 48269 48268 48266 48265 48264 48259 48258 48257 48256 48253 48251 48250 48249 48247 48245 48243 48242 48241 48239 48237 48236 48234 48231 48230 48229 48226 48225 48223 48218 48217 48216 48215 48214 48213 48212 48211 48210 48209 48208 48207 48206 48203 48200 48199 48198 48197 48196 48195 48194 48193 48192 48191 48190 48189 48187 48185 48184 48183 48180 48179 48178 48176 48175 48174 48172 48171 48168 48166 48165 48164 48163 48162 48161 48160 48159 48158 48157 48156 48155 48154 48152 48151 48150 48149 48146 48145 48144 48140 48139 48138 48137 48133 48132 48127 48126 48125 48123 48122 48120 48118 48116 48115 48112 48111 48109 48108 48106 48105 48101 48099 48097 48096 48095 48094 48090 48089 48088 48087 48084 48083 48082 48081 48080 48079 48078 48077 48074 48073 48072 48071 48067 48065 48064 48063 48062 48060 48059 48057 48056 48055 48052 48051 48050 48046 48045 48044 48042 48041 48039 48038 48037 48036 48034 48033 48031 48030 48029 48027 48024 48023 48021 48020 48019 48018 48017 48016 48015 48013 48012 48011 48010 48009 48008 48006 48004 48003 48001 48000 47999 47998 47997 47996 47993 47992 47990 47988 47987 47986 47985 47984 47983 47982 47981 47980 47979 47978 47977 47976 47975 47972 47970 47969 47968 47966 47964 47961 47960 47957 47956 47955 47954 47953 47952 47950 47949 47948 47947 47946 47944 47943 47942 47941 47940 47939 47938 47937 47936 47935 47934 47932 47931 47930 47929 47928 47927 47926 47925 47923 47922 47921 47920 47919 47918 47917 47915 47914 47913 47912 47909 47907 47906 47903 47902 47901 47900 47899 47898 47897 47896 47895 47893 47892 47891 47890 47888 47886 47885 47884 47883 47881 47878 47876 47875 47874 47873 47872 47871 47869 47868 47867 47866 47865 47864 47863 47862 47861 47859 47858 47857 47855 47853 47852 47851 47848 47847 47845 47843 47841 47840 47839 47836 47835 47834 47832 47831 47828 47825 47822 47821 47820 47818 47817 47816 47815 47814 47812 47811 47810 47809 47808 47807 47806 47805 47804 47801 47798 47795 47794 47793 47792 47791 47790 47788 47787 47785 47783 47781 47780 47779 47778 47777 47776 47775 47774 47773 47771 47770 47769 47768 47767 47765 47763 47761 47760 47758 47756 47755 47754 47753 47752 47750 47749 47747 47746 47745 47743 47742 47741 47740 47738 47737 47736 47735 47734 47733 47732 47730 47729 47728 47727 47725 47724 47723 47722 47721 47720 47715 47714 47713 47712 47707 47706 47705 47702 47699 47698 47696 47695 47693 47692 47689 47688 47687 47686 47684 47683 47682 47681 47677 47675 47674 47673 47672 47671 47669 47667 47666 47665 47664 47663 47661 47660 47658 47657 47656 47653 47651 47648 47647 47646 47643 47642 47641 47640 47639 47638 47637 47636 47634 47633 47632 47631 47629 47628 47624 47622 47617 47615 47614 47612 47611 47610 47609 47607 47605 47604 47603 47601 47600 47599 47596 47593 47592 47591 47589 47588 47587 47586 47584 47583 47582 47581 47580 47579 47578 47577 47576 47573 47570 47569 47568 47567 47566 47565 47564 47562 47561 47559 47558 47557 47555 47553 47551 47550 47549 47547 47546 47545 47543 47542 47540 47539 47538 47535 47534 47533 47530 47527 47526 47525 47524 47523 47522 47521 47520 47519 47517 47516 47515 47514 47513 47511 47510 47509 47508 47506 47504 47503 47502 47500 47498 47496 47495 47494 47493 47492 47490 47489 47486 47485 47484 47482 47481 47480 47479 47477 47476 47475 47472 47471 47470 47469 47468 47467 47466 47465 47463 47462 47461 47460 47459 47458 47456 47455 47454 47453 47450 47449 47448 47447 47445 47444 47443 47441 47440 47438 47436 47435 47434 47432 47431 47430 47429 47428 47427 47425 47424 47423 47420 47418 47416 47415 47411 47410 47409 47407 47403 47399 47398 47395 47393 47392 47391 47390 47389 47388 47387 47382 47381 47380 47379 47378 47377 47375 47374 47373 47372 47371 47370 47369 47368 47367 47366 47364 47363 47360 47359 47358 47357 47355 47353 47352 47350 47349 47348 47346 47345 47344 47343 47340 47333 47332 47331 47330 47328 47326 47324 47323 47322 47320 47317 47314 47313 47311 47308 47307 47305 47304 47302 47301 47300 47298 47297 47295 47294 47292 47291 47290 47289 47288 47287 47286 47285 47284 47283 47282 47281 47279 47278 47275 47274 47273 47271 47269 47268 47267 47266 47265 47264 47263 47262 47261 47260 47259 47257 47254 47252 47249 47248 47246 47245 47244 47242 47241 47239 47237 47236 47235 47234 47233 47229 47228 47226 47225 47224 47223 47222 47220 47218 47217 47216 47214 47213 47212 47209 47208 47207 47205 47202 47201 47200 47199 47197 47196 47193 47192 47191 47190 47189 47187 47186 47185 47184 47181 47180 47179 47178 47177 47176 47173 47171 47170 47169 47167 47165 47164 47162 47161 47160 47157 47156 47155 47154 47153 47152 47151 47150 47149 47148 47147 47145 47144 47143 47142 47141 47139 47138 47137 47135 47134 47131 47129 47128 47126 47125 47124 47123 47121 47120 47118 47117 47115 47114 47112 47111 47110 47109 47108 47107 47106 47104 47103 47102 47098 47097 47096 47095 47094 47093 47092 47090 47089 47087 47086 47085 47084 47083 47082 47081 47080 47079 47078 47077 47076 47075 47074 47072 47071 47068 47067 47064 47063 47060 47059 47057 47056 47055 47053 47052 47051 47050 47048 47047 47045 47041 47039 47036 47033 47032 47030 47029 47027 47026 47024 47022 47021 47020 47018 47015 47013 47010 47008 47007 47006 47005 47002 47001 46997 46996 46995 46993 46991 46990 46989 46988 46987 46986 46985 46984 46982 46981 46979 46977 46975 46974 46973 46972 46969 46968 46967 46966 46965 46964 46962 46959 46957 46956 46955 46953 46952 46951 46950 46949 46947 46946 46945 46943 46942 46941 46940 46939 46938 46937 46936 46935 46934 46932 46931 46930 46929 46928 46927 46925 46924 46921 46918 46917 46916 46915 46910 46909 46907 46906 46904 46903 46902 46901 46900 46899 46898 46896 46892 46891 46886 46885 46884 46883 46882 46881 46878 46877 46876 46875 46873 46871 46870 46869 46868 46867 46862 46861 46859 46856 46854 46853 46852 46849 46848 46847 46846 46844 46843 46842 46839 46838 46837 46836 46835 46833 46830 46829 46827 46826 46824 46821 46819 46818 46817 46814 46813 46811 46809 46808 46806 46805 46803 46800 46799 46798 46797 46796 46795 46794 46792 46791 46790 46789 46788 46786 46784 46780 46779 46778 46777 46775 46772 46771 46770 46769 46767 46766 46765 46763 46759 46757 46756 46754 46752 46751 46750 46749 46748 46747 46746 46745 46743 46742 46741 46740 46739 46737 46736 46734 46733 46730 46729 46728 46727 46726 46725 46724 46723 46722 46721 46720 46719 46717 46714 46709 46707 46706 46704 46703 46702 46700 46699 46698 46696 46693 46692 46688 46687 46685 46684 46683 46680 46679 46677 46676 46675 46673 46672 46670 46669 46668 46667 46666 46665 46664 46661 46658 46657 46656 46655 46654 46653 46652 46651 46649 46647 46646 46645 46644 46642 46641 46640 46638 46637 46636 46635 46634 46632 46631 46630 46629 46627 46625 46624 46622 46621 46618 46617 46616 46613 46612 46611 46610 46608 46607 46606 46605 46604 46603 46602 46599 46596 46595 46594 46588 46587 46586 46585 46584 46583 46582 46581 46580 46579 46578 46576 46575 46573 46572 46571 46568 46566 46565 46564 46563 46562 46560 46559 46558 46557 46556 46555 46554 46553 46552 46550 46549 46547 46546 46544 46543 46542 46541 46539 46533 46532 46531 46530 46529 46528 46527 46526 46524 46522 46521 46520 46519 46518 46517 46514 46513 46512 46511 46510 46509 46507 46506 46504 46503 46502 46500 46499 46496 46495 46493 46492 46490 46489 46488 46487 46484 46483 46482 46480 46478 46477 46476 46475 46474 46472 46471 46469 46468 46464 46460 46457 46456 46455 46454 46453 46449 46448 46447 46445 46444 46443 46441 46440 46438 46436 46435 46434 46429 46428 46426 46422 46421 46420 46418 46417 46414 46413 46411 46410 46408 46406 46404 46402 46400 46398 46397 46396 46395 46394 46393 46392 46389 46387 46384 46383 46382 46381 46379 46377 46372 46371 46370 46367 46366 46365 46363 46361 46360 46358 46357 46356 46355 46354 46353 46351 46350 46349 46347 46346 46345 46344 46343 46342 46341 46340 46339 46338 46334 46333 46332 46331 46330 46329 46327 46326 46323 46322 46321 46318 46317 46315 46311 46310 46307 46306 46304 46302 46301 46300 46299 46298 46295 46294 46293 46292 46291 46290 46289 46288 46287 46286 46285 46283 46281 46280 46279 46278 46277 46276 46272 46270 46267 46266 46265 46263 46261 46259 46255 46254 46253 46252 46251 46250 46246 46245 46244 46240 46238 46235 46234 46233 46231 46230 46229 46228 46227 46226 46225 46224 46220 46217 46216 46215 46212 46211 46210 46208 46207 46201 46198 46197 46196 46194 46193 46191 46190 46188 46187 46183 46182 46181 46180 46179 46177 46176 46175 46174 46173 46172 46171 46170 46167 46166 46165 46164 46163 46161 46159 46158 46157 46156 46155 46154 46153 46152 46151 46150 46149 46143 46142 46141 46140 46139 46138 46137 46136 46135 46134 46132 46130 46127 46125 46124 46123 46122 46121 46120 46119 46118 46117 46116 46115 46114 46112 46111 46110 46109 46106 46105 46104 46103 46102 46100 46099 46098 46097 46096 46095 46094 46091 46090 46089 46087 46086 46085 46084 46082 46081 46080 46078 46077 46076 46074 46073 46072 46071 46068 46065 46064 46062 46059 46058 46057 46056 46055 46054 46053 46052 46051 46050 46049 46048 46047 46046 46045 46044 46042 46041 46040 46039 46037 46036 46035 46034 46033 46032 46031 46030 46029 46027 46025 46024 46021 46020 46019 46018 46017 46016 46015 46014 46013 46011 46009 46008 46007 46006 46005 46004 46003 46000 45998 45997 45996 45995 45994 45993 45991 45990 45989 45988 45987 45986 45984 45983 45982 45981 45978 45977 45976 45975 45974 45973 45972 45971 45970 45969 45968 45967 45963 45962 45961 45959 45956 45954 45951 45948 45947 45946 45945 45943 45942 45941 45938 45937 45935 45934 45933 45932 45930 45929 45927 45925 45924 45922 45920 45919 45917 45916 45914 45913 45912 45911 45910 45908 45907 45906 45905 45902 45901 45900 45898 45897 45896 45895 45894 45891 45890 45888 45887 45885 45884 45883 45882 45881 45879 45878 45876 45875 45872 45867 45865 45864 45861 45859 45857 45856 45854 45853 45852 45851 45850 45845 45844 45843 45842 45841 45840 45839 45836 45835 45833 45831 45829 45826 45825 45824 45822 45821 45820 45819 45818 45817 45815 45814 45813 45812 45809 45807 45806 45804 45803 45802 45801 45800 45799 45798 45797 45795 45794 45793 45791 45790 45788 45787 45785 45784 45783 45781 45780 45779 45778 45777 45771 45769 45767 45766 45765 45764 45763 45762 45761 45759 45757 45756 45755 45754 45753 45752 45751 45749 45748 45745 45743 45742 45741 45740 45739 45738 45737 45735 45734 45733 45731 45730 45729 45728 45727 45726 45725 45724 45723 45722 45720 45719 45718 45717 45716 45715 45713 45712 45710 45707 45706 45704 45703 45702 45701 45700 45699 45697 45696 45695 45694 45693 45691 45690 45688 45687 45686 45685 45681 45680 45679 45678 45677 45676 45675 45674 45673 45672 45671 45670 45666 45665 45663 45661 45660 45659 45657 45656 45655 45654 45653 45651 45649 45648 45647 45646 45645 45643 45640 45639 45635 45634 45633 45632 45631 45630 45629 45624 45620 45618 45616 45615 45613 45612 45611 45610 45609 45608 45607 45605 45604 45603 45600 45598 45595 45593 45592 45591 45590 45589 45588 45587 45586 45584 45583 45582 45581 45580 45579 45578 45577 45576 45575 45574 45573 45572 45571 45569 45567 45566 45564 45563 45562 45561 45560 45557 45555 45554 45553 45552 45550 45548 45547 45546 45543 45542 45541 45539 45537 45536 45533 45532 45530 45528 45526 45524 45523 45522 45520 45519 45518 45517 45516 45515 45513 45512 45511 45510 45509 45506 45505 45504 45503 45502 45500 45499 45497 45496 45495 45494 45492 45491 45489 45488 45486 45484 45483 45482 45481 45480 45479 45478 45477 45476 45475 45474 45473 45472 45471 45470 45469 45468 45467 45466 45464 45463 45462 45461 45460 45459 45457 45455 45454 45451 45450 45448 45446 45445 45443 45442 45441 45440 45439 45437 45435 45434 45433 45432 45431 45428 45427 45425 45424 45421 45420 45418 45417 45416 45415 45414 45412 45410 45409 45405 45404 45403 45400 45399 45398 45397 45396 45395 45394 45393 45389 45387 45385 45384 45383 45382 45380 45379 45377 45376 45375 45373 45371 45368 45367 45366 45365 45364 45363 45362 45361 45360 45359 45358 45357 45356 45355 45354 45353 45352 45351 45350 45349 45348 45347 45346 45344 45343 45340 45339 45337 45335 45334 45331 45329 45328 45325 45324 45322 45321 45320 45319 45318 45316 45315 45314 45313 45312 45311 45310 45309 45307 45305 45304 45302 45301 45300 45298 45297 45296 45293 45292 45291 45290 45289 45288 45287 45286 45284 45283 45282 45280 45279 45278 45277 45276 45274 45272 45271 45270 45268 45265 45263 45262 45261 45260 45259 45258 45257 45255 45254 45251 45250 45249 45248 45246 45241 45240 45238 45237 45235 45231 45229 45228 45227 45225 45223 45221 45220 45218 45217 45216 45215 45214 45213 45212 45211 45210 45209 45208 45206 45203 45201 45200 45199 45197 45193 45192 45191 45190 45189 45187 45186 45185 45183 45182 45180 45179 45178 45177 45175 45173 45172 45171 45168 45167 45166 45164 45163 45162 45159 45158 45157 45156 45152 45150 45149 45148 45147 45146 45145 45143 45140 45139 45136 45135 45134 45132 45131 45130 45129 45128 45126 45125 45123 45122 45120 45118 45117 45116 45114 45113 45112 45111 45110 45109 45107 45105 45104 45103 45102 45097 45096 45095 45094 45090 45089 45088 45087 45085 45084 45083 45082 45081 45080 45079 45078 45077 45076 45074 45073 45072 45071 45070 45069 45068 45067 45063 45061 45059 45055 45054 45053 45051 45050 45049 45048 45047 45046 45045 45041 45039 45038 45037 45035 45033 45030 45029 45028 45027 45026 45025 45022 45021 45020 45018 45017 45013 45012 45011 45010 45009 45008 45007 45006 45005 45003 44999 44997 44996 44994 44993 44992 44991 44988 44984 44983 44982 44981 44979 44977 44975 44974 44973 44972 44970 44969 44967 44966 44965 44964 44963 44962 44961 44960 44959 44958 44956 44955 44954 44952 44951 44948 44947 44945 44944 44943 44942 44939 44938 44937 44935 44933 44932 44930 44928 44926 44925 44924 44923 44922 44921 44920 44918 44917 44914 44913 44911 44910 44909 44906 44904 44903 44902 44900 44898 44896 44895 44891 44890 44888 44887 44886 44885 44883 44882 44880 44878 44877 44876 44875 44874 44873 44871 44870 44868 44867 44866 44865 44864 44863 44862 44861 44860 44859 44858 44857 44854 44853 44851 44850 44848 44846 44845 44841 44839 44838 44835 44833 44831 44830 44829 44826 44825 44824 44823 44821 44820 44819 44818 44817 44815 44814 44813 44811 44810 44808 44807 44806 44805 44804 44803 44802 44801 44800 44798 44797 44796 44795 44794 44792 44791 44790 44787 44786 44785 44784 44780 44779 44778 44777 44776 44774 44772 44771 44770 44769 44766 44765 44764 44763 44762 44761 44760 44759 44758 44757 44755 44754 44753 44752 44751 44750 44749 44748 44747 44746 44745 44744 44743 44741 44740 44739 44738 44735 44734 44733 44732 44730 44728 44727 44726 44725 44724 44722 44721 44720 44719 44718 44716 44715 44714 44713 44711 44708 44707 44706 44705 44704 44702 44700 44699 44695 44693 44690 44689 44688 44687 44686 44685 44684 44678 44677 44675 44674 44672 44670 44669 44667 44666 44665 44662 44660 44658 44657 44654 44651 44648 44647 44646 44645 44643 44642 44641 44640 44639 44638 44636 44635 44634 44633 44630 44629 44628 44626 44625 44624 44623 44622 44621 44620 44615 44614 44613 44612 44610 44609 44608 44607 44606 44602 44601 44600 44598 44597 44596 44595 44592 44591 44590 44588 44587 44585 44583 44582 44581 44580 44578 44576 44575 44574 44572 44571 44569 44568 44567 44566 44565 44564 44561 44560 44559 44556 44555 44554 44551 44550 44548 44547 44546 44545 44544 44541 44538 44537 44536 44535 44534 44533 44532 44531 44530 44529 44528 44527 44526 44525 44524 44522 44521 44520 44519 44518 44516 44515 44512 44511 44510 44508 44507 44506 44505 44503 44502 44501 44499 44498 44497 44496 44495 44493 44491 44490 44488 44487 44486 44485 44484 44483 44480 44479 44478 44477 44474 44471 44469 44468 44467 44466 44465 44463 44459 44458 44457 44454 44453 44450 44449 44448 44446 44445 44443 44442 44441 44440 44439 44438 44435 44433 44432 44430 44429 44427 44425 44424 44423 44422 44421 44420 44419 44418 44417 44416 44415 44414 44413 44412 44407 44406 44405 44403 44402 44400 44399 44396 44394 44393 44390 44389 44385 44384 44382 44381 44380 44376 44375 44374 44373 44370 44369 44368 44367 44366 44365 44362 44361 44360 44357 44355 44353 44352 44351 44350 44348 44346 44343 44341 44340 44339 44336 44335 44332 44331 44328 44327 44323 44322 44320 44318 44316 44313 44311 44310 44309 44308 44307 44306 44305 44304 44301 44300 44299 44298 44297 44295 44291 44290 44289 44288 44287 44285 44282 44279 44278 44277 44274 44272 44269 44268 44267 44266 44264 44263 44261 44260 44259 44257 44255 44254 44253 44252 44250 44247 44246 44245 44244 44243 44242 44241 44239 44238 44236 44235 44234 44232 44231 44230 44229 44227 44225 44224 44223 44222 44220 44218 44216 44214 44212 44211 44210 44209 44206 44205 44204 44203 44202 44201 44200 44199 44198 44196 44195 44194 44193 44192 44189 44188 44186 44185 44182 44179 44178 44177 44175 44173 44172 44171 44170 44169 44168 44167 44166 44164 44163 44162 44161 44160 44159 44157 44155 44153 44152 44148 44147 44146 44145 44144 44143 44142 44141 44140 44139 44138 44137 44135 44134 44133 44132 44131 44130 44129 44128 44126 44125 44124 44123 44122 44121 44119 44118 44117 44116 44113 44112 44111 44110 44109 44106 44103 44102 44101 44100 44099 44098 44097 44096 44095 44094 44093 44092 44091 44090 44087 44086 44085 44084 44081 44078 44077 44076 44073 44072 44071 44070 44066 44063 44062 44060 44059 44057 44056 44055 44054 44052 44049 44048 44045 44044 44042 44041 44040 44038 44037 44035 44034 44033 44030 44029 44028 44026 44024 44023 44022 44020 44019 44018 44015 44013 44011 44010 44009 44008 44007 44006 44003 43999 43997 43996 43995 43994 43993 43992 43991 43990 43989 43988 43987 43986 43982 43980 43979 43978 43977 43975 43974 43973 43972 43970 43969 43968 43967 43966 43965 43964 43963 43962 43960 43959 43957 43956 43955 43952 43951 43944 43943 43942 43941 43940 43939 43938 43937 43935 43934 43933 43932 43931 43929 43927 43925 43924 43923 43922 43921 43917 43916 43915 43914 43913 43910 43909 43907 43904 43903 43902 43901 43899 43898 43897 43895 43894 43893 43892 43891 43890 43886 43884 43883 43882 43881 43878 43877 43876 43875 43873 43871 43870 43869 43867 43866 43865 43864 43863 43862 43861 43859 43856 43854 43852 43851 43850 43848 43847 43845 43843 43842 43841 43838 43837 43836 43835 43834 43833 43832 43831 43829 43826 43825 43823 43822 43820 43818 43817 43816 43814 43813 43812 43811 43809 43808 43807 43803 43801 43799 43798 43797 43795 43793 43792 43791 43789 43787 43786 43785 43783 43781 43780 43776 43775 43773 43772 43770 43769 43768 43767 43766 43765 43764 43763 43762 43759 43757 43756 43754 43753 43752 43751 43750 43749 43747 43744 43741 43739 43738 43734 43733 43732 43731 43730 43729 43728 43727 43726 43725 43724 43723 43722 43721 43720 43719 43717 43713 43711 43710 43709 43708 43707 43706 43705 43704 43703 43701 43700 43699 43697 43696 43695 43694 43693 43692 43690 43689 43688 43687 43685 43684 43683 43682 43681 43679 43678 43677 43676 43674 43671 43668 43667 43666 43665 43661 43660 43659 43658 43657 43655 43653 43652 43651 43650 43649 43648 43646 43645 43643 43640 43639 43638 43637 43636 43635 43634 43633 43632 43627 43625 43622 43620 43619 43617 43615 43613 43612 43611 43609 43608 43607 43606 43605 43604 43603 43602 43600 43598 43597 43596 43594 43593 43592 43590 43589 43588 43587 43586 43585 43583 43582 43581 43579 43578 43577 43576 43573 43572 43571 43570 43569 43568 43567 43564 43563 43562 43561 43560 43557 43555 43551 43550 43549 43547 43546 43545 43543 43542 43541 43540 43539 43537 43536 43535 43534 43533 43532 43530 43527 43526 43524 43523 43522 43521 43519 43517 43516 43513 43512 43511 43510 43509 43508 43507 43506 43505 43504 43503 43502 43501 43500 43499 43497 43496 43495 43488 43486 43484 43483 43481 43480 43478 43477 43475 43473 43471 43469 43468 43465 43464 43463 43462 43460 43459 43458 43456 43455 43454 43453 43451 43450 43449 43446 43445 43444 43443 43441 43439 43438 43437 43436 43434 43433 43431 43428 43426 43425 43424 43423 43422 43421 43419 43418 43417 43415 43414 43413 43412 43409 43408 43407 43406 43405 43404 43403 43402 43401 43400 43399 43398 43397 43396 43395 43394 43393 43390 43389 43388 43387 43386 43385 43384 43383 43381 43380 43378 43377 43376 43375 43374 43371 43370 43369 43368 43367 43366 43365 43364 43363 43362 43360 43358 43357 43355 43354 43353 43352 43350 43348 43347 43346 43345 43344 43343 43342 43341 43340 43339 43338 43337 43336 43335 43333 43332 43331 43330 43328 43324 43323 43320 43317 43315 43307 43306 43305 43303 43302 43301 43300 43298 43297 43296 43294 43291 43290 43289 43288 43287 43286 43285 43283 43280 43278 43277 43276 43274 43270 43269 43267 43266 43265 43261 43260 43259 43258 43257 43256 43254 43252 43249 43248 43247 43245 43244 43243 43242 43239 43238 43237 43235 43234 43233 43232 43230 43229 43228 43226 43224 43223 43222 43221 43220 43217 43215 43214 43213 43212 43211 43208 43207 43206 43204 43203 43199 43197 43196 43193 43192 43191 43189 43187 43186 43183 43182 43181 43179 43178 43177 43176 43175 43174 43173 43172 43171 43170 43169 43168 43167 43164 43160 43158 43157 43156 43155 43154 43153 43152 43151 43150 43148 43147 43145 43144 43143 43142 43141 43140 43132 43131 43130 43129 43128 43127 43125 43124 43123 43122 43121 43119 43117 43116 43115 43113 43111 43109 43107 43106 43105 43104 43103 43100 43098 43097 43096 43095 43094 43092 43089 43088 43087 43086 43085 43083 43082 43081 43079 43076 43075 43073 43071 43069 43068 43067 43066 43065 43064 43063 43060 43059 43058 43056 43053 43051 43050 43047 43045 43043 43040 43039 43038 43037 43036 43035 43034 43033 43032 43031 43029 43025 43022 43020 43019 43018 43017 43016 43015 43014 43013 43012 43011 43010 43009 43007 43005 43003 43002 43000 42999 42998 42997 42995 42994 42993 42991 42990 42988 42987 42985 42984 42982 42980 42978 42977 42975 42974 42968 42965 42962 42960 42959 42958 42955 42954 42953 42952 42951 42950 42949 42947 42945 42944 42943 42939 42937 42936 42935 42933 42932 42931 42930 42929 42927 42924 42923 42921 42920 42918 42916 42914 42913 42912 42911 42907 42906 42904 42903 42902 42900 42899 42898 42897 42895 42894 42893 42892 42891 42889 42888 42887 42886 42885 42883 42882 42881 42880 42876 42874 42873 42872 42870 42866 42865 42863 42860 42858 42855 42854 42848 42846 42845 42841 42840 42839 42837 42835 42834 42833 42831 42830 42829 42828 42827 42826 42825 42824 42823 42821 42819 42814 42813 42811 42810 42809 42808 42807 42806 42803 42802 42801 42798 42797 42796 42795 42794 42793 42792 42790 42789 42787 42781 42780 42779 42777 42776 42775 42774 42773 42772 42771 42768 42767 42764 42763 42761 42760 42759 42758 42757 42756 42754 42753 42750 42749 42747 42746 42745 42744 42743 42738 42737 42734 42733 42732 42731 42729 42728 42727 42725 42722 42720 42719 42718 42717 42716 42714 42712 42711 42710 42709 42708 42705 42701 42700 42699 42696 42695 42694 42692 42690 42689 42687 42685 42684 42680 42679 42677 42676 42674 42673 42671 42670 42669 42666 42664 42663 42662 42660 42658 42655 42654 42652 42651 42650 42649 42643 42642 42639 42637 42636 42635 42634 42633 42631 42630 42628 42627 42626 42625 42624 42622 42621 42618 42617 42615 42614 42612 42611 42610 42609 42608 42607 42606 42605 42601 42600 42599 42596 42594 42593 42592 42591 42588 42586 42585 42583 42582 42581 42580 42579 42578 42577 42576 42575 42572 42571 42570 42569 42567 42566 42565 42564 42562 42561 42560 42559 42557 42554 42552 42551 42548 42547 42545 42544 42541 42540 42539 42538 42537 42535 42533 42532 42529 42528 42524 42522 42521 42519 42518 42517 42515 42514 42513 42508 42507 42506 42505 42503 42502 42501 42500 42499 42496 42495 42492 42490 42488 42484 42483 42482 42481 42478 42477 42474 42473 42471 42470 42469 42468 42467 42466 42465 42464 42462 42461 42460 42459 42456 42452 42451 42450 42448 42445 42444 42442 42441 42440 42438 42437 42436 42433 42432 42431 42430 42429 42428 42427 42426 42425 42420 42419 42418 42416 42410 42409 42408 42407 42405 42403 42401 42398 42394 42393 42392 42391 42390 42387 42386 42385 42383 42382 42381 42380 42377 42375 42374 42373 42372 42371 42369 42368 42367 42366 42365 42364 42363 42361 42359 42358 42357 42355 42354 42352 42350 42349 42348 42347 42345 42344 42343 42342 42339 42338 42337 42336 42335 42333 42332 42331 42330 42329 42328 42327 42325 42324 42323 42322 42321 42320 42319 42317 42315 42314 42313 42310 42309 42308 42307 42305 42304 42303 42301 42300 42297 42296 42295 42293 42291 42289 42288 42287 42282 42281 42280 42279 42277 42273 42272 42268 42267 42265 42264 42263 42262 42261 42259 42258 42257 42255 42254 42251 42249 42248 42247 42246 42245 42244 42243 42242 42241 42239 42238 42237 42236 42234 42233 42229 42227 42226 42225 42224 42222 42219 42217 42216 42215 42212 42210 42209 42208 42207 42206 42203 42202 42201 42196 42195 42193 42191 42189 42187 42186 42184 42183 42182 42181 42180 42178 42177 42176 42175 42173 42170 42169 42167 42165 42164 42163 42162 42161 42160 42159 42158 42157 42155 42154 42153 42152 42151 42146 42145 42144 42143 42142 42141 42138 42136 42134 42133 42131 42130 42129 42127 42125 42124 42122 42121 42119 42118 42117 42116 42112 42111 42110 42109 42107 42105 42104 42103 42101 42100 42099 42098 42095 42093 42092 42091 42089 42088 42086 42084 42081 42080 42077 42074 42072 42071 42070 42069 42068 42067 42066 42064 42063 42062 42060 42058 42056 42054 42053 42051 42049 42048 42047 42045 42041 42040 42038 42037 42034 42033 42032 42031 42030 42028 42027 42025 42024 42023 42022 42021 42019 42018 42017 42015 42014 42013 42012 42011 42010 42009 42006 42005 42003 42002 42001 41999 41998 41997 41996 41995 41994 41993 41991 41986 41982 41978 41975 41970 41969 41967 41966 41965 41964 41963 41961 41960 41959 41958 41957 41955 41953 41952 41951 41949 41947 41946 41945 41944 41942 41941 41939 41937 41936 41935 41933 41932 41931 41930 41928 41927 41926 41925 41922 41919 41918 41917 41916 41915 41914 41913 41912 41910 41908 41907 41904 41902 41901 41899 41896 41895 41894 41893 41892 41887 41886 41885 41884 41882 41881 41878 41876 41874 41873 41872 41871 41869 41868 41867 41866 41865 41862 41861 41860 41859 41858 41857 41855 41854 41853 41852 41851 41850 41849 41848 41847 41843 41842 41841 41839 41838 41835 41834 41832 41831 41830 41829 41828 41827 41826 41825 41824 41823 41822 41821 41820 41819 41818 41817 41814 41812 41811 41810 41809 41807 41806 41805 41803 41802 41800 41798 41797 41795 41794 41793 41790 41789 41787 41786 41785 41784 41783 41782 41779 41778 41777 41776 41775 41774 41773 41772 41771 41770 41769 41766 41763 41762 41761 41760 41758 41757 41755 41754 41753 41752 41751 41750 41748 41744 41742 41741 41740 41739 41736 41734 41733 41732 41731 41730 41729 41728 41725 41723 41722 41720 41717 41716 41714 41713 41712 41709 41708 41705 41701 41699 41697 41696 41693 41690 41688 41685 41684 41682 41680 41679 41677 41676 41675 41673 41672 41671 41669 41668 41667 41666 41664 41663 41662 41660 41658 41656 41653 41651 41650 41648 41647 41646 41645 41644 41643 41641 41640 41639 41638 41636 41630 41629 41627 41626 41625 41623 41622 41621 41619 41618 41617 41616 41615 41614 41613 41611 41610 41609 41607 41606 41605 41604 41603 41602 41601 41600 41599 41598 41595 41594 41593 41592 41591 41587 41586 41585 41583 41582 41581 41578 41577 41576 41575 41573 41572 41571 41569 41567 41566 41565 41562 41561 41560 41559 41558 41557 41555 41554 41551 41550 41549 41548 41547 41543 41540 41538 41537 41536 41533 41529 41528 41524 41523 41521 41520 41519 41518 41517 41514 41513 41512 41511 41510 41507 41506 41505 41503 41502 41501 41500 41498 41497 41495 41494 41492 41491 41490 41489 41488 41487 41486 41485 41484 41482 41480 41478 41477 41476 41474 41472 41471 41470 41468 41467 41466 41465 41463 41460 41458 41457 41456 41455 41452 41451 41448 41447 41445 41443 41440 41439 41436 41435 41433 41431 41430 41428 41427 41426 41425 41423 41422 41421 41420 41419 41418 41415 41412 41411 41408 41407 41406 41403 41402 41401 41399 41398 41397 41396 41395 41394 41392 41391 41389 41388 41387 41384 41383 41379 41377 41376 41375 41374 41373 41372 41371 41368 41364 41363 41361 41357 41355 41353 41352 41351 41347 41344 41343 41342 41341 41340 41339 41338 41337 41336 41334 41333 41332 41331 41328 41327 41326 41325 41324 41323 41320 41319 41318 41317 41315 41314 41313 41310 41309 41308 41307 41305 41303 41302 41297 41296 41295 41294 41292 41291 41290 41289 41283 41281 41280 41279 41278 41277 41276 41275 41274 41272 41271 41270 41269 41266 41265 41262 41260 41254 41253 41252 41250 41249 41248 41247 41245 41243 41242 41241 41240 41239 41236 41235 41234 41232 41231 41230 41229 41228 41227 41226 41221 41219 41218 41217 41213 41212 41211 41210 41208 41206 41205 41204 41202 41200 41199 41198 41197 41196 41195 41194 41192 41191 41189 41187 41186 41183 41182 41180 41179 41178 41177 41176 41175 41174 41172 41171 41170 41169 41167 41166 41165 41164 41163 41162 41161 41160 41159 41157 41152 41148 41146 41143 41142 41141 41140 41139 41138 41134 41132 41131 41130 41128 41127 41126 41125 41124 41123 41120 41118 41117 41114 41112 41111 41110 41108 41107 41106 41105 41104 41101 41100 41099 41098 41096 41094 41093 41092 41090 41089 41088 41085 41084 41083 41082 41080 41079 41077 41074 41071 41069 41067 41065 41064 41063 41062 41060 41059 41057 41055 41054 41053 41052 41051 41050 41049 41048 41042 41041 41036 41035 41034 41031 41030 41029 41028 41027 41024 41023 41022 41020 41018 41017 41016 41015 41014 41010 41008 41007 41005 41004 41003 41002 41001 40999 40995 40990 40989 40988 40987 40986 40985 40984 40983 40982 40981 40980 40979 40974 40973 40972 40971 40970 40969 40966 40965 40964 40962 40961 40960 40959 40957 40956 40955 40954 40952 40951 40950 40949 40948 40947 40945 40944 40943 40941 40940 40939 40938 40937 40931 40930 40927 40926 40925 40924 40923 40922 40921 40920 40919 40918 40916 40915 40914 40912 40911 40910 40909 40908 40906 40905 40899 40898 40896 40895 40894 40893 40892 40891 40890 40889 40887 40886 40885 40883 40880 40879 40878 40877 40875 40873 40871 40870 40869 40867 40866 40865 40864 40862 40860 40859 40858 40857 40856 40855 40854 40853 40851 40850 40848 40847 40846 40845 40842 40841 40840 40839 40838 40837 40836 40835 40834 40830 40828 40826 40825 40823 40822 40821 40820 40819 40818 40817 40816 40815 40814 40813 40811 40809 40808 40806 40805 40804 40800 40798 40797 40795 40794 40791 40790 40788 40787 40786 40785 40784 40782 40781 40780 40779 40776 40775 40774 40773 40772 40769 40766 40765 40764 40763 40761 40760 40759 40758 40757 40756 40755 40754 40753 40752 40751 40749 40748 40745 40744 40743 40742 40740 40739 40738 40733 40732 40730 40728 40727 40726 40724 40723 40722 40720 40719 40718 40717 40716 40713 40712 40711 40708 40707 40705 40703 40702 40701 40699 40697 40696 40694 40693 40692 40691 40690 40688 40686 40684 40683 40682 40681 40680 40678 40677 40676 40675 40674 40673 40672 40669 40668 40667 40666 40664 40663 40662 40661 40660 40659 40657 40655 40654 40652 40651 40650 40649 40647 40642 40639 40638 40637 40636 40635 40633 40632 40630 40629 40626 40625 40622 40620 40618 40616 40615 40614 40613 40612 40611 40607 40606 40605 40604 40603 40602 40601 40600 40599 40597 40596 40594 40593 40592 40591 40590 40588 40587 40586 40585 40584 40583 40582 40581 40579 40578 40577 40575 40573 40569 40567 40566 40564 40563 40561 40560 40558 40557 40555 40553 40552 40551 40550 40549 40548 40547 40543 40541 40540 40538 40537 40535 40533 40532 40531 40530 40529 40525 40524 40521 40520 40519 40517 40516 40513 40511 40510 40508 40507 40506 40505 40504 40501 40500 40499 40498 40497 40495 40494 40493 40488 40487 40486 40485 40484 40483 40482 40478 40475 40474 40471 40469 40468 40467 40465 40464 40463 40462 40461 40460 40459 40458 40455 40454 40452 40450 40449 40448 40446 40442 40441 40440 40439 40438 40435 40434 40433 40432 40430 40429 40425 40424 40422 40421 40420 40419 40418 40417 40416 40415 40414 40413 40411 40409 40407 40406 40405 40401 40400 40398 40396 40395 40392 40391 40388 40387 40385 40384 40383 40379 40378 40377 40376 40375 40374 40373 40370 40369 40365 40362 40361 40360 40357 40356 40355 40353 40351 40350 40349 40348 40347 40345 40344 40343 40342 40339 40337 40336 40335 40334 40333 40332 40331 40328 40327 40326 40325 40324 40323 40322 40321 40320 40319 40315 40314 40312 40310 40308 40306 40305 40302 40300 40299 40298 40297 40296 40294 40293 40291 40290 40287 40285 40283 40282 40281 40280 40277 40275 40274 40273 40272 40270 40269 40268 40267 40266 40263 40260 40257 40256 40254 40253 40252 40251 40250 40248 40247 40246 40244 40243 40242 40240 40239 40236 40234 40233 40230 40229 40226 40224 40223 40222 40221 40220 40219 40217 40216 40214 40211 40208 40207 40206 40204 40203 40201 40200 40197 40196 40194 40193 40192 40191 40190 40186 40184 40183 40182 40180 40179 40174 40173 40169 40168 40166 40165 40164 40163 40160 40159 40158 40155 40154 40153 40152 40151 40150 40149 40147 40146 40145 40144 40143 40142 40141 40140 40139 40138 40136 40135 40134 40133 40132 40131 40130 40126 40124 40122 40120 40119 40118 40117 40116 40115 40113 40112 40111 40106 40105 40104 40103 40102 40100 40098 40097 40095 40093 40092 40090 40089 40088 40081 40079 40076 40075 40074 40073 40072 40071 40070 40069 40068 40067 40065 40063 40062 40059 40057 40055 40054 40051 40049 40048 40046 40045 40043 40042 40041 40039 40038 40037 40035 40034 40033 40032 40031 40030 40029 40028 40027 40025 40023 40021 40020 40017 40015 40013 40011 40010 40009 40008 40007 40006 40004 40003 40001 40000 39998 39996 39995 39993 39992 39991 39990 39989 39987 39983 39980 39974 39973 39972 39969 39968 39967 39966 39965 39962 39960 39956 39954 39953 39952 39951 39950 39947 39946 39945 39944 39942 39941 39939 39938 39936 39935 39934 39933 39932 39930 39929 39927 39926 39925 39923 39920 39919 39918 39916 39915 39914 39911 39910 39909 39908 39907 39905 39902 39901 39900 39899 39894 39892 39891 39890 39889 39888 39887 39886 39885 39883 39881 39880 39878 39877 39875 39874 39872 39871 39870 39869 39868 39866 39865 39864 39862 39860 39859 39858 39854 39853 39851 39850 39845 39841 39837 39836 39834 39833 39832 39830 39829 39828 39827 39825 39824 39822 39820 39818 39817 39816 39815 39814 39813 39811 39810 39809 39808 39807 39801 39796 39795 39793 39792 39790 39789 39788 39787 39784 39783 39782 39781 39780 39779 39778 39776 39775 39773 39772 39771 39767 39766 39765 39764 39763 39762 39761 39758 39757 39756 39754 39752 39751 39750 39749 39748 39747 39746 39744 39742 39741 39739 39738 39737 39736 39734 39733 39732 39731 39730 39729 39728 39726 39723 39722 39721 39720 39718 39717 39716 39715 39713 39712 39710 39709 39708 39707 39706 39705 39703 39702 39701 39700 39699 39698 39697 39696 39695 39694 39692 39691 39690 39689 39688 39686 39685 39684 39683 39680 39679 39678 39677 39676 39675 39674 39672 39671 39670 39668 39666 39662 39660 39659 39658 39657 39656 39655 39653 39652 39651 39649 39648 39647 39646 39645 39644 39642 39641 39639 39638 39637 39636 39635 39634 39633 39629 39628 39627 39626 39624 39623 39622 39619 39618 39617 39616 39615 39614 39613 39612 39611 39610 39607 39605 39603 39602 39601 39598 39597 39596 39595 39592 39591 39590 39588 39586 39585 39584 39583 39582 39580 39579 39578 39577 39576 39575 39572 39570 39569 39566 39564 39562 39560 39557 39555 39554 39553 39552 39551 39549 39548 39547 39546 39545 39543 39540 39539 39538 39537 39536 39535 39534 39533 39532 39531 39530 39528 39525 39524 39523 39522 39521 39520 39518 39517 39516 39514 39512 39511 39508 39507 39506 39505 39504 39502 39501 39500 39499 39498 39497 39495 39494 39490 39489 39487 39485 39482 39480 39479 39478 39477 39475 39471 39470 39469 39468 39465 39462 39461 39459 39458 39456 39453 39452 39451 39448 39447 39446 39445 39444 39443 39440 39437 39435 39433 39431 39430 39429 39428 39427 39425 39424 39423 39422 39421 39420 39419 39418 39417 39416 39414 39413 39411 39410 39409 39408 39406 39405 39403 39402 39401 39400 39399 39397 39396 39395 39394 39393 39391 39390 39389 39388 39387 39385 39383 39382 39381 39380 39379 39378 39377 39375 39374 39372 39369 39368 39367 39366 39364 39363 39361 39359 39358 39357 39356 39355 39354 39352 39351 39350 39348 39347 39345 39343 39342 39340 39339 39338 39337 39334 39333 39332 39331 39329 39328 39327 39326 39325 39324 39323 39322 39320 39318 39317 39315 39313 39312 39309 39308 39306 39305 39304 39303 39302 39301 39300 39299 39298 39297 39296 39295 39293 39292 39290 39289 39288 39287 39286 39285 39284 39283 39282 39281 39280 39279 39278 39277 39276 39274 39273 39269 39261 39259 39258 39257 39255 39253 39251 39248 39246 39245 39243 39242 39241 39239 39237 39236 39235 39234 39232 39231 39230 39229 39228 39227 39226 39225 39224 39223 39222 39221 39220 39219 39218 39217 39215 39213 39211 39210 39208 39207 39206 39205 39204 39203 39202 39199 39198 39195 39194 39192 39190 39187 39186 39185 39182 39181 39180 39179 39177 39176 39174 39173 39172 39171 39170 39169 39168 39165 39162 39161 39160 39159 39158 39153 39151 39150 39148 39147 39146 39145 39144 39142 39140 39138 39137 39136 39135 39134 39133 39131 39130 39126 39125 39124 39123 39122 39118 39117 39115 39114 39113 39111 39110 39109 39107 39106 39105 39104 39103 39102 39101 39100 39098 39097 39096 39095 39094 39093 39092 39088 39087 39086 39084 39083 39082 39078 39076 39074 39073 39072 39071 39070 39069 39068 39067 39066 39065 39064 39063 39062 39061 39059 39057 39056 39055 39054 39053 39052 39049 39047 39046 39045 39042 39040 39039 39038 39037 39036 39035 39034 39033 39032 39031 39030 39029 39028 39027 39025 39024 39023 39022 39021 39016 39015 39014 39013 39008 39004 39003 39002 39001 38999 38996 38995 38994 38991 38990 38988 38987 38986 38984 38983 38982 38980 38979 38978 38977 38976 38974 38973 38971 38970 38969 38968 38967 38964 38963 38962 38960 38959 38958 38957 38956 38955 38953 38952 38946 38944 38943 38942 38941 38940 38938 38936 38934 38933 38931 38930 38929 38928 38927 38926 38924 38923 38922 38921 38920 38919 38918 38917 38916 38915 38913 38911 38910 38909 38908 38906 38905 38904 38903 38900 38899 38897 38893 38887 38886 38885 38884 38881 38879 38878 38877 38876 38872 38871 38870 38868 38867 38866 38864 38862 38859 38857 38856 38855 38854 38853 38852 38850 38848 38845 38844 38842 38841 38840 38839 38838 38837 38836 38835 38834 38832 38831 38830 38829 38827 38826 38825 38824 38822 38821 38818 38817 38815 38814 38812 38811 38810 38809 38808 38807 38806 38805 38804 38803 38801 38800 38799 38798 38796 38795 38792 38791 38790 38789 38788 38786 38785 38784 38783 38781 38780 38778 38776 38775 38774 38772 38770 38769 38768 38767 38765 38764 38763 38761 38759 38758 38756 38754 38753 38752 38750 38749 38748 38747 38746 38743 38741 38739 38738 38736 38735 38734 38733 38732 38731 38730 38728 38727 38726 38724 38723 38722 38721 38720 38719 38718 38716 38715 38714 38712 38711 38708 38707 38706 38702 38700 38699 38698 38697 38696 38695 38693 38692 38689 38688 38687 38684 38683 38682 38681 38678 38677 38676 38675 38674 38673 38672 38671 38670 38668 38667 38666 38665 38664 38663 38662 38661 38660 38658 38657 38656 38654 38653 38652 38651 38650 38648 38647 38646 38644 38642 38641 38640 38638 38637 38636 38635 38634 38632 38631 38629 38628 38627 38626 38625 38624 38623 38622 38621 38619 38618 38617 38615 38614 38608 38607 38605 38604 38603 38600 38599 38598 38597 38593 38592 38591 38590 38589 38588 38586 38585 38583 38581 38580 38578 38576 38575 38574 38573 38572 38571 38569 38567 38566 38565 38564 38563 38556 38554 38553 38551 38550 38546 38545 38544 38542 38541 38540 38539 38538 38537 38536 38535 38534 38531 38530 38529 38527 38523 38522 38520 38518 38517 38516 38514 38513 38512 38510 38508 38507 38506 38505 38499 38498 38496 38495 38494 38493 38491 38489 38488 38486 38484 38481 38478 38477 38475 38474 38473 38472 38471 38470 38467 38466 38465 38464 38462 38461 38459 38458 38456 38455 38454 38451 38448 38447 38446 38445 38444 38443 38442 38441 38440 38437 38436 38432 38431 38430 38429 38428 38426 38425 38424 38423 38421 38420 38419 38418 38417 38415 38414 38413 38412 38411 38410 38409 38407 38405 38403 38401 38400 38399 38397 38396 38395 38391 38388 38386 38385 38383 38381 38378 38377 38375 38374 38373 38372 38371 38370 38369 38368 38367 38366 38365 38363 38362 38361 38360 38359 38357 38356 38355 38354 38352 38349 38348 38347 38346 38345 38344 38343 38342 38341 38340 38339 38338 38336 38333 38332 38331 38330 38328 38327 38325 38324 38323 38318 38317 38315 38314 38313 38312 38310 38309 38307 38306 38302 38301 38300 38299 38297 38296 38295 38294 38292 38290 38289 38288 38286 38285 38284 38283 38282 38280 38279 38278 38277 38275 38274 38270 38267 38266 38265 38264 38263 38261 38260 38259 38257 38256 38255 38253 38252 38251 38249 38247 38245 38244 38243 38242 38239 38238 38237 38236 38235 38234 38231 38230 38228 38227 38226 38224 38223 38222 38221 38220 38218 38215 38214 38213 38212 38211 38210 38207 38205 38204 38201 38200 38199 38197 38196 38194 38193 38192 38191 38190 38189 38186 38184 38181 38180 38179 38178 38175 38174 38173 38171 38169 38166 38165 38163 38162 38161 38160 38159 38155 38154 38152 38149 38148 38147 38146 38145 38142 38141 38140 38139 38138 38136 38135 38134 38132 38129 38127 38123 38121 38120 38119 38118 38117 38116 38114 38113 38112 38111 38107 38106 38103 38102 38101 38100 38099 38098 38097 38096 38095 38094 38093 38090 38087 38085 38084 38083 38080 38079 38077 38076 38075 38074 38073 38072 38071 38070 38069 38068 38067 38066 38065 38064 38063 38062 38061 38060 38057 38056 38055 38054 38052 38051 38050 38049 38048 38046 38043 38042 38040 38038 38035 38034 38033 38032 38030 38029 38026 38025 38024 38021 38020 38019 38018 38015 38013 38012 38011 38010 38009 38008 38005 38004 38000 37999 37996 37995 37994 37993 37992 37989 37988 37987 37986 37985 37984 37983 37982 37980 37978 37976 37974 37973 37971 37970 37969 37968 37967 37963 37961 37960 37958 37957 37955 37953 37952 37949 37948 37942 37941 37940 37938 37936 37935 37934 37933 37932 37931 37929 37928 37926 37924 37923 37922 37919 37918 37916 37915 37913 37912 37908 37907 37906 37905 37904 37901 37899 37898 37897 37895 37893 37892 37891 37889 37888 37886 37885 37884 37882 37879 37877 37876 37875 37874 37873 37871 37870 37868 37865 37864 37863 37862 37861 37860 37858 37855 37854 37851 37850 37849 37848 37847 37846 37845 37843 37842 37841 37839 37837 37835 37834 37833 37832 37830 37829 37826 37825 37824 37823 37821 37820 37819 37818 37816 37815 37814 37812 37811 37810 37809 37808 37805 37803 37802 37801 37800 37797 37796 37795 37794 37791 37790 37788 37787 37786 37780 37778 37777 37775 37774 37773 37772 37770 37768 37766 37762 37761 37760 37759 37757 37756 37753 37752 37751 37750 37748 37747 37746 37745 37743 37742 37740 37738 37736 37735 37734 37730 37729 37728 37727 37726 37724 37722 37721 37720 37719 37718 37717 37715 37714 37713 37712 37711 37710 37709 37708 37705 37703 37700 37699 37697 37696 37695 37694 37691 37690 37689 37687 37686 37685 37684 37683 37682 37681 37680 37678 37675 37674 37673 37672 37671 37670 37669 37668 37667 37665 37664 37660 37658 37657 37656 37650 37649 37648 37646 37645 37643 37641 37639 37636 37635 37634 37632 37631 37629 37628 37626 37625 37621 37620 37618 37617 37616 37615 37614 37612 37611 37609 37608 37606 37605 37604 37602 37601 37600 37599 37596 37592 37590 37589 37588 37587 37585 37581 37580 37579 37578 37577 37575 37574 37573 37572 37571 37569 37568 37567 37564 37563 37562 37561 37558 37557 37556 37555 37551 37550 37549 37548 37547 37546 37545 37544 37543 37542 37540 37537 37536 37535 37534 37533 37532 37529 37528 37523 37521 37520 37518 37516 37515 37512 37511 37510 37507 37506 37503 37502 37501 37498 37497 37496 37495 37492 37491 37490 37489 37488 37487 37486 37485 37484 37482 37481 37479 37478 37477 37476 37472 37471 37470 37469 37468 37467 37465 37464 37463 37462 37455 37453 37452 37449 37447 37446 37444 37443 37442 37441 37438 37437 37435 37434 37431 37429 37428 37426 37425 37424 37423 37422 37421 37419 37416 37415 37414 37413 37412 37411 37410 37409 37408 37407 37405 37404 37401 37400 37399 37397 37396 37392 37391 37390 37389 37388 37387 37386 37382 37380 37379 37377 37375 37374 37373 37371 37370 37369 37363 37362 37361 37359 37358 37357 37354 37352 37351 37350 37348 37347 37346 37345 37343 37342 37341 37340 37339 37338 37336 37335 37334 37333 37331 37330 37329 37327 37326 37325 37324 37321 37319 37318 37317 37315 37314 37313 37312 37311 37310 37309 37308 37306 37305 37304 37303 37302 37301 37300 37299 37298 37297 37296 37295 37294 37293 37292 37291 37289 37287 37286 37284 37282 37280 37278 37276 37275 37274 37273 37272 37270 37268 37267 37265 37264 37263 37261 37260 37259 37257 37255 37254 37251 37249 37245 37244 37243 37242 37241 37239 37235 37234 37232 37231 37230 37229 37228 37227 37226 37225 37224 37223 37220 37219 37218 37217 37216 37211 37210 37209 37206 37205 37203 37200 37196 37195 37190 37188 37187 37186 37185 37183 37182 37180 37179 37178 37174 37172 37171 37170 37169 37168 37167 37166 37165 37164 37163 37162 37159 37158 37157 37154 37152 37151 37150 37149 37146 37145 37142 37141 37140 37138 37136 37132 37130 37129 37128 37126 37125 37124 37123 37122 37120 37118 37117 37116 37113 37112 37110 37109 37108 37107 37106 37105 37104 37103 37101 37099 37098 37094 37092 37091 37089 37088 37086 37085 37083 37082 37080 37076 37073 37072 37070 37069 37068 37067 37065 37064 37061 37059 37058 37053 37052 37050 37047 37046 37045 37044 37042 37040 37039 37038 37037 37035 37034 37032 37031 37030 37028 37027 37026 37025 37023 37021 37020 37019 37018 37017 37016 37015 37014 37013 37011 37009 37008 37007 37006 37005 37004 37003 37002 37000 36999 36998 36997 36995 36994 36992 36990 36987 36986 36985 36983 36980 36976 36975 36973 36972 36971 36970 36968 36965 36964 36963 36961 36960 36959 36957 36956 36955 36954 36953 36951 36950 36949 36948 36947 36946 36944 36943 36942 36941 36940 36938 36937 36935 36934 36932 36931 36930 36929 36928 36927 36926 36925 36924 36923 36920 36919 36917 36916 36915 36914 36913 36912 36911 36910 36909 36908 36907 36906 36904 36903 36901 36899 36898 36897 36896 36893 36892 36891 36890 36888 36887 36886 36885 36883 36882 36881 36880 36879 36876 36875 36874 36873 36872 36869 36867 36865 36864 36862 36861 36859 36858 36855 36854 36853 36850 36849 36848 36847 36846 36843 36839 36838 36837 36835 36834 36832 36830 36829 36826 36825 36824 36823 36821 36820 36817 36814 36810 36809 36808 36807 36806 36804 36802 36799 36798 36794 36793 36791 36790 36789 36787 36786 36784 36783 36782 36781 36779 36777 36776 36775 36771 36770 36769 36768 36767 36766 36765 36764 36763 36762 36761 36760 36759 36757 36756 36755 36754 36753 36751 36749 36746 36745 36744 36738 36737 36736 36735 36734 36731 36729 36728 36727 36726 36725 36724 36723 36722 36721 36720 36719 36718 36717 36715 36714 36713 36712 36711 36710 36709 36707 36706 36704 36703 36702 36700 36699 36698 36697 36696 36695 36694 36693 36688 36687 36686 36684 36683 36682 36681 36680 36679 36677 36676 36674 36673 36672 36670 36666 36664 36663 36660 36659 36658 36657 36655 36654 36653 36652 36651 36650 36649 36648 36645 36643 36642 36640 36639 36638 36636 36635 36634 36632 36629 36628 36626 36625 36624 36623 36621 36619 36618 36616 36614 36612 36611 36610 36608 36606 36604 36602 36600 36599 36598 36596 36595 36592 36591 36590 36587 36584 36583 36579 36578 36577 36576 36574 36572 36571 36568 36567 36566 36565 36564 36563 36562 36559 36558 36557 36556 36555 36553 36552 36551 36546 36545 36543 36542 36541 36540 36539 36538 36537 36534 36533 36530 36529 36528 36527 36526 36524 36523 36522 36520 36519 36515 36514 36512 36511 36510 36509 36508 36506 36505 36504 36503 36502 36501 36499 36497 36496 36495 36494 36493 36492 36491 36490 36489 36488 36487 36486 36483 36481 36480 36478 36477 36476 36475 36474 36473 36472 36470 36469 36468 36467 36466 36465 36464 36463 36462 36459 36458 36455 36452 36451 36450 36448 36447 36446 36445 36443 36441 36440 36439 36438 36437 36436 36435 36434 36433 36431 36430 36429 36428 36425 36423 36421 36420 36419 36417 36416 36414 36413 36412 36411 36410 36409 36408 36407 36406 36405 36404 36403 36401 36398 36393 36392 36391 36390 36389 36388 36387 36385 36384 36383 36382 36381 36380 36378 36375 36370 36369 36368 36367 36366 36364 36363 36361 36360 36358 36356 36354 36353 36352 36351 36350 36348 36346 36345 36343 36342 36340 36337 36336 36335 36333 36332 36331 36329 36325 36324 36322 36321 36316 36314 36313 36312 36310 36309 36307 36306 36305 36303 36302 36299 36298 36297 36296 36295 36294 36293 36290 36288 36287 36286 36284 36282 36281 36280 36279 36278 36277 36276 36273 36272 36269 36268 36267 36263 36261 36260 36259 36258 36257 36256 36254 36253 36252 36251 36250 36249 36246 36245 36244 36242 36239 36238 36237 36235 36231 36230 36229 36228 36227 36226 36225 36224 36223 36222 36221 36219 36217 36216 36215 36214 36210 36209 36208 36207 36206 36205 36202 36201 36198 36197 36193 36192 36191 36189 36188 36187 36184 36183 36182 36181 36180 36179 36177 36172 36170 36169 36167 36166 36165 36164 36163 36161 36159 36158 36157 36155 36154 36153 36152 36151 36149 36148 36146 36141 36139 36138 36137 36136 36135 36134 36133 36132 36131 36130 36128 36126 36123 36122 36121 36118 36117 36115 36114 36113 36110 36109 36108 36107 36106 36103 36102 36101 36099 36097 36093 36091 36090 36088 36087 36086 36085 36084 36083 36082 36081 36079 36078 36077 36076 36075 36072 36071 36069 36067 36065 36064 36063 36062 36061 36056 36055 36053 36051 36049 36048 36047 36046 36045 36044 36043 36042 36041 36039 36038 36037 36036 36035 36034 36032 36031 36030 36029 36028 36027 36026 36025 36024 36023 36022 36021 36019 36017 36016 36015 36014 36013 36012 36011 36008 36007 36005 36004 36003 36002 36001 36000 35999 35998 35997 35995 35994 35992 35989 35988 35986 35985 35982 35981 35979 35978 35977 35976 35975 35973 35972 35971 35970 35969 35968 35967 35966 35964 35963 35962 35960 35959 35957 35954 35953 35948 35947 35946 35945 35944 35943 35941 35940 35938 35937 35936 35934 35933 35932 35931 35930 35929 35927 35926 35925 35924 35922 35921 35920 35917 35916 35915 35914 35913 35912 35910 35909 35907 35905 35904 35903 35902 35901 35900 35899 35898 35897 35896 35895 35894 35893 35889 35888 35886 35885 35884 35882 35881 35879 35876 35874 35873 35872 35869 35868 35867 35864 35860 35859 35858 35857 35856 35855 35854 35853 35852 35851 35850 35847 35845 35844 35843 35842 35841 35840 35839 35838 35835 35834 35833 35832 35831 35830 35829 35828 35827 35823 35822 35821 35820 35816 35815 35812 35811 35810 35809 35808 35806 35804 35803 35802 35800 35799 35798 35795 35793 35791 35790 35789 35787 35786 35785 35784 35783 35781 35780 35778 35775 35774 35773 35772 35771 35770 35768 35766 35764 35763 35762 35760 35759 35758 35756 35754 35753 35752 35751 35750 35748 35745 35744 35740 35739 35738 35737 35735 35734 35733 35732 35730 35728 35727 35726 35725 35723 35722 35720 35719 35718 35717 35716 35712 35711 35708 35707 35706 35704 35703 35702 35701 35700 35699 35696 35695 35694 35689 35686 35685 35684 35683 35682 35677 35675 35673 35672 35670 35669 35668 35667 35666 35665 35663 35662 35660 35659 35657 35656 35654 35653 35652 35651 35648 35647 35646 35645 35644 35643 35640 35639 35638 35636 35635 35633 35632 35631 35630 35628 35626 35625 35624 35623 35622 35621 35620 35619 35618 35617 35614 35613 35612 35610 35609 35608 35607 35606 35605 35603 35602 35601 35599 35597 35596 35595 35594 35593 35592 35590 35589 35588 35586 35584 35583 35582 35581 35578 35577 35574 35573 35571 35570 35569 35567 35566 35564 35562 35561 35560 35559 35558 35557 35556 35554 35551 35550 35548 35547 35545 35544 35542 35541 35540 35539 35538 35537 35535 35534 35533 35530 35529 35528 35523 35521 35520 35518 35517 35516 35515 35514 35513 35511 35510 35509 35508 35507 35505 35504 35503 35501 35500 35498 35497 35496 35495 35494 35491 35490 35489 35488 35487 35486 35484 35483 35482 35481 35480 35478 35477 35474 35473 35472 35471 35470 35468 35467 35465 35463 35461 35460 35459 35458 35455 35453 35452 35451 35449 35448 35447 35446 35445 35444 35443 35442 35439 35438 35437 35436 35434 35431 35430 35429 35428 35427 35426 35425 35424 35423 35422 35421 35420 35416 35415 35414 35411 35410 35409 35408 35407 35405 35404 35401 35400 35399 35398 35397 35396 35395 35393 35392 35390 35387 35384 35383 35382 35381 35380 35379 35378 35375 35374 35373 35371 35370 35369 35368 35366 35365 35363 35362 35359 35358 35356 35355 35354 35353 35352 35350 35349 35348 35347 35346 35345 35344 35343 35342 35341 35340 35338 35336 35333 35332 35330 35329 35328 35327 35325 35324 35323 35322 35321 35319 35318 35317 35315 35313 35309 35302 35301 35300 35299 35297 35295 35292 35289 35288 35287 35286 35285 35283 35281 35278 35275 35273 35272 35271 35270 35269 35266 35265 35264 35262 35261 35259 35258 35257 35256 35254 35253 35252 35251 35250 35248 35246 35245 35243 35240 35239 35238 35236 35233 35232 35230 35229 35228 35227 35226 35222 35221 35219 35218 35217 35215 35213 35211 35210 35208 35207 35205 35204 35202 35201 35200 35199 35198 35197 35195 35194 35192 35190 35189 35188 35187 35183 35179 35178 35177 35175 35174 35173 35172 35171 35168 35167 35165 35164 35163 35162 35161 35159 35157 35155 35152 35151 35150 35149 35147 35146 35145 35144 35143 35142 35141 35140 35139 35137 35136 35135 35134 35133 35132 35131 35129 35127 35126 35125 35124 35123 35122 35121 35119 35117 35115 35112 35110 35108 35107 35106 35105 35103 35102 35101 35099 35098 35095 35091 35087 35085 35083 35082 35079 35078 35075 35074 35073 35072 35071 35070 35069 35066 35064 35063 35062 35061 35060 35059 35058 35057 35055 35054 35053 35051 35050 35046 35045 35044 35041 35040 35039 35038 35036 35035 35034 35033 35031 35030 35029 35026 35025 35023 35021 35020 35018 35017 35016 35014 35012 35011 35009 35008 35007 35006 35005 35004 35003 35001 35000 34999 34998 34997 34996 34994 34993 34992 34991 34990 34989 34987 34986 34985 34984 34982 34981 34979 34978 34976 34972 34969 34967 34965 34964 34963 34962 34961 34958 34957 34956 34953 34952 34951 34948 34946 34944 34943 34942 34941 34940 34939 34938 34937 34936 34933 34930 34925 34924 34923 34921 34920 34918 34916 34914 34912 34909 34908 34907 34905 34904 34902 34900 34898 34897 34896 34894 34893 34891 34890 34889 34888 34887 34886 34885 34883 34881 34880 34879 34878 34877 34873 34872 34871 34870 34867 34866 34865 34864 34863 34861 34860 34859 34856 34855 34854 34853 34852 34850 34849 34847 34846 34845 34842 34839 34838 34836 34832 34831 34829 34828 34827 34825 34824 34823 34821 34819 34817 34815 34814 34811 34810 34809 34808 34806 34803 34802 34801 34800 34799 34798 34797 34796 34795 34794 34793 34791 34789 34788 34786 34785 34784 34781 34779 34778 34775 34774 34770 34766 34764 34763 34762 34761 34760 34758 34757 34755 34754 34750 34749 34747 34746 34744 34743 34741 34740 34739 34738 34737 34736 34735 34733 34732 34730 34726 34725 34724 34723 34722 34720 34719 34718 34717 34716 34714 34711 34709 34708 34705 34702 34701 34700 34698 34697 34696 34692 34691 34690 34689 34688 34687 34685 34684 34680 34679 34678 34675 34674 34673 34672 34671 34669 34668 34666 34663 34662 34661 34660 34659 34657 34655 34654 34653 34652 34651 34650 34648 34647 34645 34644 34643 34642 34640 34639 34638 34637 34636 34635 34634 34633 34632 34631 34630 34627 34626 34625 34624 34623 34622 34621 34619 34618 34616 34613 34610 34609 34607 34606 34605 34604 34603 34602 34601 34600 34599 34598 34597 34596 34595 34594 34593 34592 34591 34590 34589 34588 34587 34586 34585 34584 34583 34582 34581 34580 34577 34572 34571 34569 34568 34567 34566 34565 34564 34562 34561 34558 34557 34553 34552 34551 34550 34548 34546 34544 34542 34540 34539 34538 34537 34536 34533 34532 34531 34529 34528 34527 34526 34525 34521 34519 34518 34517 34516 34515 34514 34512 34511 34509 34508 34506 34505 34504 34503 34502 34498 34497 34496 34493 34492 34491 34489 34488 34487 34486 34485 34484 34483 34482 34481 34479 34477 34476 34474 34472 34471 34469 34468 34467 34465 34463 34461 34460 34459 34457 34452 34451 34450 34449 34448 34446 34445 34444 34443 34442 34440 34439 34437 34436 34435 34434 34433 34432 34431 34429 34428 34426 34423 34421 34420 34418 34417 34416 34415 34413 34412 34411 34410 34409 34408 34407 34406 34405 34404 34403 34401 34400 34399 34398 34397 34396 34393 34391 34390 34388 34386 34382 34381 34380 34379 34378 34376 34373 34371 34370 34369 34368 34365 34364 34363 34362 34361 34360 34359 34358 34357 34354 34349 34348 34347 34346 34344 34342 34341 34340 34334 34333 34332 34331 34330 34329 34328 34327 34323 34322 34321 34320 34317 34316 34315 34311 34310 34309 34308 34306 34305 34304 34303 34299 34298 34296 34294 34293 34292 34291 34289 34288 34287 34285 34284 34279 34274 34273 34272 34269 34268 34267 34266 34265 34263 34260 34259 34258 34256 34255 34254 34252 34251 34250 34249 34248 34247 34246 34245 34241 34240 34239 34238 34237 34235 34234 34231 34230 34229 34228 34227 34226 34225 34224 34222 34221 34217 34216 34215 34214 34209 34208 34207 34206 34205 34204 34203 34202 34200 34199 34197 34196 34195 34194 34192 34191 34190 34189 34188 34187 34185 34183 34182 34181 34179 34177 34176 34174 34173 34172 34171 34170 34168 34165 34163 34161 34158 34157 34155 34153 34152 34151 34150 34149 34144 34143 34142 34141 34137 34136 34134 34133 34132 34131 34128 34125 34124 34123 34122 34121 34120 34119 34118 34117 34115 34114 34112 34111 34110 34109 34108 34106 34104 34103 34102 34101 34099 34098 34097 34096 34095 34094 34093 34091 34090 34089 34088 34086 34084 34081 34078 34077 34076 34075 34072 34070 34069 34067 34066 34065 34064 34063 34061 34060 34059 34058 34057 34056 34055 34054 34053 34052 34051 34050 34049 34048 34046 34045 34043 34040 34039 34038 34037 34036 34035 34034 34031 34030 34027 34026 34025 34021 34020 34019 34018 34017 34015 34014 34013 34012 34011 34010 34006 34005 34004 34002 34001 33996 33995 33994 33993 33992 33991 33990 33989 33988 33987 33986 33976 33975 33974 33973 33972 33971 33970 33969 33967 33966 33964 33962 33961 33960 33956 33954 33953 33951 33950 33949 33948 33947 33946 33945 33944 33939 33938 33936 33934 33933 33932 33931 33927 33926 33923 33922 33921 33920 33917 33916 33915 33913 33912 33911 33909 33908 33907 33904 33903 33902 33901 33900 33898 33894 33892 33891 33889 33886 33885 33884 33882 33880 33879 33878 33877 33876 33873 33872 33871 33869 33867 33865 33864 33862 33860 33859 33855 33854 33853 33851 33850 33848 33847 33846 33845 33843 33842 33839 33838 33835 33834 33830 33829 33828 33827 33826 33825 33824 33823 33822 33821 33820 33819 33817 33816 33815 33813 33812 33811 33810 33809 33808 33806 33805 33804 33803 33802 33801 33799 33797 33795 33793 33791 33788 33786 33785 33784 33783 33780 33779 33776 33774 33773 33772 33771 33770 33766 33765 33764 33763 33762 33761 33759 33758 33756 33754 33753 33752 33750 33747 33746 33745 33744 33743 33741 33740 33738 33737 33736 33732 33730 33729 33726 33725 33724 33723 33722 33721 33720 33719 33718 33717 33716 33713 33712 33711 33710 33709 33707 33706 33704 33703 33702 33700 33699 33697 33694 33693 33692 33690 33688 33687 33686 33684 33683 33681 33680 33679 33672 33671 33669 33668 33666 33663 33662 33660 33659 33658 33657 33655 33654 33653 33652 33651 33649 33648 33647 33643 33641 33640 33639 33638 33637 33636 33635 33634 33633 33632 33630 33627 33626 33625 33624 33623 33620 33619 33617 33616 33615 33613 33612 33611 33610 33609 33607 33606 33603 33602 33600 33599 33598 33597 33596 33595 33594 33593 33592 33591 33590 33589 33588 33587 33586 33584 33583 33582 33579 33577 33576 33574 33573 33571 33569 33568 33566 33565 33564 33563 33560 33559 33558 33557 33555 33554 33553 33550 33549 33548 33546 33545 33544 33542 33541 33537 33536 33535 33534 33533 33531 33530 33529 33528 33527 33526 33523 33522 33521 33520 33518 33516 33514 33513 33512 33511 33509 33507 33506 33505 33504 33502 33501 33500 33499 33498 33497 33496 33494 33492 33491 33490 33489 33488 33487 33485 33484 33483 33482 33481 33480 33479 33478 33475 33471 33468 33467 33466 33464 33463 33461 33460 33458 33457 33456 33455 33453 33452 33451 33448 33447 33446 33445 33444 33443 33440 33439 33437 33436 33435 33434 33433 33431 33430 33428 33427 33426 33425 33423 33422 33421 33420 33419 33418 33417 33416 33415 33414 33413 33412 33411 33410 33409 33408 33407 33404 33403 33402 33401 33397 33396 33394 33392 33390 33389 33387 33386 33385 33381 33380 33379 33378 33375 33374 33373 33372 33370 33369 33368 33367 33366 33365 33364 33363 33362 33361 33359 33358 33357 33355 33354 33353 33352 33351 33350 33349 33348 33347 33346 33345 33343 33342 33341 33338 33336 33335 33334 33331 33329 33328 33327 33325 33324 33323 33322 33321 33317 33316 33315 33314 33313 33312 33311 33310 33308 33307 33306 33305 33304 33303 33301 33300 33298 33297 33296 33295 33294 33293 33292 33291 33290 33289 33288 33287 33286 33285 33284 33283 33277 33276 33275 33272 33271 33270 33269 33268 33265 33264 33262 33258 33257 33256 33255 33254 33253 33252 33251 33248 33247 33246 33242 33241 33239 33237 33236 33233 33232 33229 33228 33227 33225 33224 33223 33222 33221 33220 33218 33217 33216 33215 33214 33213 33211 33210 33208 33207 33205 33203 33202 33200 33198 33194 33193 33192 33191 33190 33189 33188 33187 33185 33184 33183 33182 33181 33180 33179 33178 33177 33176 33174 33173 33172 33171 33170 33168 33167 33166 33165 33163 33160 33159 33158 33157 33156 33153 33151 33147 33145 33144 33143 33140 33139 33138 33137 33134 33133 33132 33131 33130 33129 33127 33126 33122 33121 33120 33119 33118 33117 33116 33115 33113 33112 33111 33110 33107 33106 33105 33102 33101 33100 33099 33097 33096 33093 33092 33091 33090 33089 33088 33085 33084 33081 33080 33079 33076 33075 33073 33072 33071 33070 33068 33067 33065 33064 33063 33062 33061 33060 33059 33056 33055 33054 33053 33052 33051 33050 33048 33046 33045 33044 33043 33042 33041 33040 33039 33038 33037 33036 33033 33031 33030 33029 33028 33026 33025 33021 33020 33019 33018 33015 33014 33013 33012 33010 33006 33005 33004 33003 33002 33000 32998 32996 32995 32994 32993 32992 32989 32988 32986 32985 32984 32983 32982 32981 32980 32978 32977 32976 32975 32974 32973 32972 32971 32970 32968 32967 32966 32965 32964 32963 32962 32961 32959 32958 32957 32955 32952 32951 32950 32949 32948 32947 32946 32941 32940 32939 32938 32937 32936 32935 32934 32926 32923 32922 32920 32917 32915 32913 32912 32911 32909 32908 32907 32906 32904 32903 32902 32900 32898 32893 32888 32886 32884 32881 32879 32875 32874 32872 32871 32870 32869 32866 32865 32863 32862 32861 32858 32857 32856 32855 32853 32851 32850 32845 32843 32842 32841 32840 32838 32836 32834 32833 32829 32828 32827 32826 32821 32820 32818 32817 32815 32811 32810 32807 32806 32805 32804 32803 32802 32801 32800 32797 32796 32794 32793 32792 32791 32789 32788 32787 32784 32783 32781 32780 32779 32777 32776 32774 32773 32772 32770 32768 32767 32765 32763 32762 32761 32760 32758 32757 32756 32755 32754 32753 32752 32751 32750 32749 32748 32745 32742 32739 32738 32737 32736 32735 32734 32733 32732 32730 32729 32727 32725 32724 32723 32722 32721 32720 32719 32718 32716 32715 32714 32713 32712 32710 32709 32708 32707 32706 32705 32702 32700 32699 32698 32696 32695 32694 32691 32690 32689 32688 32687 32685 32683 32682 32681 32679 32677 32676 32675 32674 32673 32671 32670 32669 32668 32667 32666 32665 32664 32663 32662 32660 32659 32657 32656 32654 32653 32652 32651 32650 32649 32647 32646 32643 32642 32639 32638 32636 32635 32634 32633 32632 32631 32630 32629 32628 32627 32626 32625 32624 32623 32622 32621 32620 32618 32615 32614 32610 32609 32608 32607 32606 32605 32603 32602 32600 32598 32597 32596 32593 32592 32591 32589 32588 32587 32586 32583 32578 32577 32576 32575 32574 32572 32571 32568 32566 32565 32564 32562 32561 32560 32558 32557 32555 32552 32551 32549 32548 32547 32546 32545 32542 32541 32539 32537 32536 32535 32534 32533 32532 32531 32530 32529 32526 32523 32522 32519 32518 32517 32516 32515 32514 32512 32511 32510 32508 32505 32503 32500 32496 32495 32490 32487 32483 32482 32479 32477 32476 32473 32471 32470 32469 32468 32466 32462 32460 32459 32457 32455 32453 32450 32449 32447 32446 32445 32443 32439 32438 32437 32435 32434 32433 32431 32430 32429 32427 32426 32425 32423 32422 32420 32419 32417 32415 32414 32412 32411 32408 32405 32404 32403 32402 32401 32400 32399 32397 32396 32393 32391 32389 32387 32385 32383 32382 32381 32380 32379 32378 32376 32375 32372 32371 32369 32368 32365 32364 32363 32361 32358 32357 32356 32355 32353 32351 32349 32345 32344 32340 32338 32337 32336 32333 32332 32331 32330 32329 32328 32324 32323 32322 32320 32319 32318 32316 32312 32311 32310 32308 32306 32305 32304 32303 32301 32300 32298 32297 32295 32294 32293 32292 32291 32290 32288 32287 32286 32285 32284 32283 32282 32281 32279 32276 32275 32273 32268 32267 32266 32264 32261 32260 32259 32258 32257 32255 32254 32253 32251 32250 32249 32248 32247 32246 32245 32244 32242 32240 32235 32233 32232 32231 32230 32228 32226 32225 32224 32223 32220 32219 32218 32217 32215 32214 32213 32211 32208 32204 32201 32199 32198 32196 32194 32192 32190 32189 32187 32185 32184 32183 32181 32180 32179 32178 32177 32176 32174 32173 32171 32170 32168 32166 32165 32162 32161 32159 32157 32155 32153 32150 32149 32148 32146 32145 32144 32143 32142 32140 32139 32138 32137 32136 32135 32133 32132 32131 32130 32129 32128 32126 32125 32123 32122 32120 32119 32118 32117 32116 32115 32114 32112 32110 32108 32107 32106 32105 32103 32101 32100 32099 32097 32096 32093 32091 32089 32088 32086 32084 32082 32081 32079 32078 32076 32075 32073 32072 32071 32068 32067 32065 32064 32062 32061 32059 32056 32055 32053 32052 32051 32050 32047 32046 32045 32044 32043 32040 32038 32037 32035 32034 32033 32032 32031 32030 32029 32028 32026 32024 32023 32022 32021 32019 32018 32016 32014 32013 32012 32011 32009 32008 32006 32005 32004 32002 32001 31999 31998 31997 31996 31993 31990 31988 31987 31985 31982 31981 31980 31979 31978 31975 31971 31969 31967 31966 31965 31964 31963 31962 31960 31958 31956 31954 31953 31952 31950 31949 31947 31946 31945 31944 31942 31937 31936 31935 31934 31933 31932 31931 31930 31929 31927 31925 31923 31919 31918 31917 31916 31915 31912 31911 31910 31909 31908 31907 31905 31904 31903 31901 31900 31899 31897 31896 31895 31894 31893 31891 31889 31888 31886 31885 31884 31882 31881 31879 31878 31877 31875 31874 31872 31871 31866 31864 31863 31862 31861 31860 31858 31857 31855 31853 31852 31851 31849 31848 31846 31845 31842 31841 31840 31839 31838 31837 31835 31834 31833 31832 31831 31829 31828 31827 31825 31824 31822 31820 31819 31817 31816 31813 31812 31811 31810 31807 31806 31805 31803 31802 31799 31798 31797 31794 31792 31791 31790 31788 31787 31786 31785 31782 31779 31778 31777 31775 31774 31773 31772 31771 31770 31769 31767 31766 31764 31763 31762 31761 31760 31757 31756 31755 31754 31753 31752 31751 31750 31749 31748 31746 31745 31743 31741 31740 31738 31737 31736 31735 31734 31733 31731 31728 31727 31725 31724 31723 31722 31721 31720 31716 31715 31712 31709 31705 31704 31703 31700 31699 31696 31694 31693 31692 31691 31690 31689 31683 31682 31680 31679 31677 31675 31672 31671 31670 31669 31668 31667 31665 31664 31663 31661 31659 31658 31657 31656 31655 31651 31648 31646 31644 31642 31640 31639 31638 31637 31635 31634 31633 31632 31631 31630 31627 31626 31625 31623 31622 31621 31618 31616 31615 31614 31613 31612 31611 31610 31607 31606 31605 31603 31602 31599 31598 31596 31594 31591 31590 31587 31585 31584 31583 31581 31580 31577 31576 31574 31573 31572 31571 31570 31569 31568 31567 31564 31563 31561 31560 31559 31557 31555 31552 31551 31550 31549 31546 31545 31543 31540 31539 31538 31536 31535 31534 31532 31531 31530 31529 31528 31527 31526 31525 31524 31523 31522 31521 31520 31518 31517 31516 31515 31514 31513 31512 31511 31509 31507 31506 31501 31498 31497 31494 31493 31492 31491 31487 31486 31484 31482 31481 31480 31479 31478 31477 31475 31474 31473 31471 31470 31468 31467 31466 31458 31453 31452 31450 31449 31448 31447 31446 31445 31444 31442 31441 31440 31439 31434 31432 31431 31430 31428 31427 31425 31424 31420 31418 31416 31414 31413 31412 31410 31409 31408 31406 31403 31402 31401 31398 31397 31391 31390 31389 31388 31387 31385 31384 31383 31382 31381 31380 31379 31378 31377 31376 31375 31374 31373 31372 31371 31370 31369 31367 31366 31364 31361 31359 31358 31356 31354 31353 31350 31349 31347 31346 31344 31341 31340 31339 31338 31337 31336 31335 31333 31332 31331 31330 31329 31328 31327 31326 31324 31323 31322 31321 31320 31319 31316 31315 31314 31312 31310 31309 31307 31306 31305 31303 31298 31297 31296 31295 31294 31292 31291 31290 31289 31287 31286 31285 31284 31283 31282 31281 31279 31277 31276 31275 31272 31270 31269 31268 31267 31266 31264 31263 31262 31261 31259 31257 31255 31254 31253 31252 31251 31250 31248 31245 31244 31243 31242 31241 31239 31238 31237 31232 31229 31228 31227 31226 31223 31222 31221 31220 31218 31217 31216 31215 31213 31211 31209 31208 31206 31204 31203 31201 31200 31199 31197 31193 31189 31187 31186 31185 31184 31180 31179 31178 31177 31175 31172 31171 31170 31168 31167 31165 31164 31163 31162 31161 31159 31157 31156 31155 31154 31152 31151 31150 31149 31148 31147 31145 31144 31143 31142 31138 31137 31136 31135 31134 31133 31132 31130 31129 31128 31125 31124 31123 31122 31120 31118 31116 31114 31113 31111 31110 31109 31106 31105 31102 31100 31099 31098 31097 31096 31094 31092 31091 31090 31089 31088 31087 31086 31085 31084 31083 31082 31081 31080 31078 31076 31073 31072 31071 31069 31068 31067 31064 31063 31060 31055 31053 31051 31050 31049 31048 31047 31045 31043 31037 31036 31035 31034 31033 31031 31030 31029 31028 31025 31024 31022 31021 31020 31019 31018 31017 31016 31015 31010 31009 31008 31007 31004 31002 31001 30998 30996 30995 30994 30992 30991 30990 30988 30986 30985 30984 30982 30981 30980 30979 30978 30977 30972 30971 30969 30968 30967 30966 30965 30962 30961 30960 30959 30958 30957 30956 30955 30952 30950 30947 30946 30945 30943 30942 30941 30940 30939 30935 30934 30931 30930 30929 30928 30927 30926 30925 30924 30922 30921 30919 30918 30917 30916 30915 30913 30912 30911 30910 30908 30905 30903 30900 30897 30896 30895 30891 30890 30889 30888 30886 30885 30884 30882 30879 30878 30875 30874 30873 30872 30871 30868 30867 30866 30864 30863 30862 30861 30859 30858 30856 30854 30853 30851 30850 30849 30847 30846 30845 30844 30843 30842 30840 30839 30838 30837 30836 30835 30832 30829 30828 30827 30826 30825 30823 30821 30820 30819 30818 30817 30816 30815 30813 30812 30809 30805 30804 30803 30800 30797 30795 30792 30790 30788 30787 30785 30784 30782 30780 30778 30776 30775 30774 30773 30772 30770 30767 30765 30764 30761 30756 30755 30754 30751 30750 30747 30746 30744 30741 30740 30739 30738 30737 30736 30735 30733 30732 30729 30727 30726 30725 30723 30722 30721 30719 30718 30715 30713 30712 30711 30710 30708 30707 30703 30702 30700 30699 30697 30696 30695 30694 30692 30691 30689 30688 30687 30686 30685 30683 30682 30680 30679 30678 30677 30676 30675 30674 30673 30672 30669 30668 30667 30666 30665 30664 30663 30662 30661 30659 30657 30652 30650 30649 30648 30647 30646 30645 30642 30641 30639 30638 30635 30632 30630 30628 30626 30625 30624 30623 30622 30621 30619 30618 30617 30616 30615 30614 30613 30611 30609 30608 30606 30605 30604 30603 30602 30601 30600 30599 30598 30595 30593 30591 30588 30586 30585 30584 30581 30580 30578 30577 30576 30575 30574 30572 30571 30570 30569 30568 30567 30566 30564 30562 30561 30558 30557 30556 30555 30554 30553 30552 30551 30549 30548 30547 30546 30545 30544 30543 30541 30539 30537 30536 30535 30533 30532 30531 30525 30524 30523 30522 30521 30520 30519 30518 30516 30515 30514 30513 30512 30510 30509 30508 30507 30506 30505 30504 30503 30501 30500 30499 30498 30497 30492 30490 30489 30488 30487 30486 30485 30483 30482 30481 30480 30479 30477 30476 30475 30472 30469 30468 30467 30466 30465 30464 30462 30458 30456 30455 30454 30453 30451 30450 30449 30448 30447 30446 30445 30442 30440 30439 30437 30435 30433 30431 30430 30429 30428 30427 30425 30424 30423 30420 30419 30417 30415 30412 30411 30408 30407 30406 30404 30403 30401 30400 30398 30397 30393 30392 30390 30389 30388 30387 30386 30385 30384 30383 30382 30381 30379 30378 30377 30375 30373 30372 30370 30366 30363 30359 30355 30353 30351 30350 30349 30347 30346 30341 30339 30338 30337 30336 30335 30334 30330 30327 30326 30324 30323 30322 30320 30319 30317 30316 30315 30312 30311 30310 30309 30307 30306 30305 30304 30303 30302 30299 30298 30296 30294 30292 30290 30286 30284 30283 30282 30280 30279 30277 30276 30275 30273 30272 30271 30270 30268 30266 30265 30264 30263 30262 30260 30259 30258 30257 30255 30252 30251 30250 30248 30247 30245 30243 30240 30239 30238 30237 30236 30234 30233 30231 30230 30228 30227 30226 30225 30224 30223 30221 30220 30219 30218 30216 30215 30214 30211 30210 30209 30208 30207 30206 30205 30202 30201 30195 30194 30193 30191 30189 30188 30187 30185 30182 30181 30180 30179 30176 30175 30174 30172 30171 30170 30168 30167 30166 30163 30162 30161 30160 30159 30158 30157 30155 30153 30152 30150 30148 30146 30143 30142 30140 30136 30135 30134 30133 30132 30130 30129 30128 30125 30123 30122 30121 30119 30118 30117 30116 30115 30114 30113 30112 30111 30110 30109 30107 30105 30101 30096 30094 30093 30092 30091 30088 30087 30086 30083 30082 30081 30080 30079 30078 30077 30075 30074 30072 30071 30067 30066 30064 30061 30060 30059 30058 30057 30056 30055 30054 30052 30051 30049 30048 30047 30046 30045 30043 30040 30038 30036 30035 30034 30033 30031 30029 30022 30021 30020 30019 30018 30016 30015 30013 30012 30011 30009 30008 30007 30006 30005 30004 30003 30002 30001 29999 29998 29996 29995 29994 29993 29992 29991 29989 29987 29986 29985 29983 29982 29980 29979 29977 29968 29966 29965 29962 29961 29960 29958 29957 29956 29955 29954 29953 29952 29951 29948 29947 29946 29945 29944 29943 29942 29941 29940 29936 29935 29934 29932 29930 29928 29927 29926 29924 29922 29921 29920 29919 29918 29917 29916 29915 29914 29912 29911 29909 29906 29905 29901 29900 29899 29898 29896 29895 29894 29893 29892 29891 29890 29889 29888 29887 29883 29882 29880 29879 29878 29877 29876 29873 29872 29871 29870 29869 29868 29867 29866 29865 29863 29862 29860 29859 29858 29855 29854 29853 29852 29851 29846 29845 29844 29843 29842 29841 29839 29838 29836 29835 29832 29831 29828 29827 29826 29824 29823 29821 29820 29819 29818 29816 29814 29813 29812 29811 29809 29807 29806 29805 29804 29803 29802 29799 29798 29797 29796 29795 29793 29791 29790 29789 29788 29786 29782 29781 29780 29778 29776 29774 29773 29772 29771 29770 29769 29768 29766 29765 29764 29763 29762 29761 29760 29759 29757 29756 29755 29754 29753 29752 29750 29747 29744 29743 29742 29741 29740 29739 29738 29737 29736 29735 29733 29732 29731 29730 29729 29728 29727 29726 29725 29723 29722 29718 29717 29716 29714 29713 29712 29711 29709 29708 29704 29703 29702 29701 29700 29697 29695 29693 29692 29691 29690 29689 29688 29687 29683 29682 29680 29679 29678 29677 29676 29674 29673 29671 29670 29669 29668 29667 29666 29665 29663 29662 29660 29659 29658 29657 29656 29655 29653 29651 29650 29648 29647 29646 29645 29644 29643 29641 29639 29637 29636 29634 29632 29631 29630 29629 29628 29626 29625 29624 29622 29621 29620 29616 29614 29613 29612 29611 29609 29607 29605 29604 29603 29601 29600 29599 29598 29597 29596 29592 29591 29590 29587 29586 29584 29583 29582 29580 29579 29578 29577 29575 29574 29572 29571 29570 29569 29567 29565 29564 29563 29562 29561 29560 29556 29555 29554 29552 29551 29548 29546 29544 29543 29541 29540 29539 29538 29537 29536 29535 29534 29533 29532 29530 29529 29528 29527 29526 29525 29524 29523 29521 29520 29519 29514 29513 29512 29511 29509 29508 29507 29506 29505 29504 29503 29502 29501 29500 29498 29497 29495 29494 29493 29492 29491 29488 29487 29486 29484 29483 29482 29481 29480 29478 29477 29475 29473 29471 29470 29468 29466 29463 29462 29460 29458 29457 29456 29455 29452 29451 29450 29448 29447 29446 29445 29444 29443 29442 29441 29440 29438 29436 29435 29432 29430 29429 29425 29423 29422 29421 29420 29419 29418 29415 29414 29413 29412 29411 29410 29408 29407 29405 29403 29402 29401 29400 29399 29398 29395 29393 29392 29391 29390 29389 29388 29387 29386 29385 29384 29383 29382 29378 29376 29373 29371 29370 29368 29367 29366 29365 29362 29361 29359 29358 29357 29356 29355 29354 29353 29352 29351 29349 29348 29347 29346 29345 29343 29341 29338 29337 29335 29333 29332 29331 29330 29329 29326 29325 29324 29323 29322 29320 29319 29318 29317 29316 29315 29314 29313 29312 29308 29307 29306 29304 29303 29302 29301 29299 29298 29295 29294 29292 29291 29288 29287 29286 29285 29284 29283 29282 29281 29278 29277 29276 29275 29273 29272 29271 29270 29269 29266 29265 29264 29263 29261 29260 29257 29256 29255 29253 29251 29248 29247 29246 29245 29244 29243 29242 29241 29240 29239 29236 29235 29234 29233 29232 29231 29230 29229 29228 29227 29226 29225 29223 29222 29221 29220 29219 29215 29214 29213 29212 29207 29205 29204 29201 29200 29199 29197 29193 29192 29189 29186 29185 29183 29180 29179 29178 29177 29176 29175 29173 29171 29170 29168 29166 29165 29163 29160 29159 29158 29157 29156 29155 29154 29153 29152 29151 29150 29149 29146 29145 29144 29143 29139 29137 29135 29134 29132 29130 29128 29127 29126 29124 29123 29122 29121 29120 29116 29115 29114 29113 29109 29108 29107 29106 29103 29101 29100 29099 29098 29097 29096 29095 29092 29087 29084 29083 29082 29081 29078 29076 29075 29071 29066 29065 29064 29062 29061 29060 29059 29058 29057 29056 29055 29054 29052 29050 29049 29048 29047 29046 29045 29044 29042 29040 29039 29036 29033 29032 29031 29030 29029 29028 29027 29025 29023 29022 29021 29019 29017 29014 29013 29011 29010 29009 29008 29007 29006 29003 29000 28997 28996 28995 28994 28993 28992 28989 28988 28986 28982 28981 28980 28979 28977 28976 28975 28974 28973 28970 28969 28968 28966 28965 28964 28963 28960 28958 28955 28954 28952 28947 28945 28944 28943 28942 28940 28939 28938 28937 28935 28933 28931 28930 28924 28922 28921 28920 28919 28918 28917 28916 28915 28913 28912 28908 28907 28906 28905 28902 28899 28898 28895 28891 28890 28889 28888 28887 28886 28884 28883 28882 28881 28880 28879 28878 28877 28876 28875 28873 28872 28870 28869 28868 28867 28866 28865 28863 28862 28861 28859 28858 28857 28856 28854 28852 28851 28850 28849 28848 28847 28845 28844 28842 28840 28839 28835 28834 28833 28832 28831 28830 28827 28826 28824 28821 28820 28819 28818 28817 28816 28814 28813 28809 28808 28804 28803 28802 28801 28800 28797 28792 28791 28789 28788 28787 28785 28784 28783 28781 28777 28776 28773 28772 28771 28768 28765 28764 28763 28761 28758 28757 28755 28751 28750 28749 28748 28747 28743 28742 28741 28740 28739 28738 28737 28736 28732 28727 28725 28724 28719 28717 28715 28714 28713 28712 28710 28709 28707 28706 28704 28702 28700 28699 28698 28697 28696 28694 28691 28690 28689 28688 28686 28685 28683 28682 28681 28679 28678 28677 28676 28675 28673 28672 28671 28670 28669 28668 28666 28665 28664 28663 28661 28660 28658 28657 28655 28653 28652 28650 28649 28648 28646 28643 28642 28641 28640 28639 28637 28636 28635 28634 28633 28632 28631 28630 28627 28626 28624 28623 28621 28620 28619 28618 28617 28614 28613 28610 28608 28606 28605 28604 28603 28602 28598 28595 28594 28593 28592 28590 28589 28587 28586 28584 28581 28580 28577 28576 28575 28574 28573 28572 28571 28570 28568 28567 28566 28564 28563 28562 28560 28558 28557 28556 28553 28551 28550 28549 28548 28545 28544 28543 28542 28541 28539 28536 28528 28527 28526 28523 28521 28520 28519 28518 28517 28516 28515 28513 28512 28510 28509 28507 28504 28502 28501 28500 28498 28497 28496 28493 28490 28489 28488 28487 28485 28484 28483 28482 28481 28480 28479 28478 28477 28476 28474 28473 28472 28471 28470 28469 28468 28466 28464 28462 28461 28460 28459 28457 28455 28452 28451 28450 28448 28447 28446 28445 28443 28442 28441 28440 28439 28438 28437 28436 28435 28434 28433 28432 28429 28428 28427 28426 28425 28422 28421 28420 28419 28418 28416 28415 28414 28413 28411 28410 28409 28408 28407 28405 28404 28403 28401 28399 28397 28395 28393 28392 28391 28389 28387 28385 28384 28383 28382 28381 28378 28377 28376 28375 28373 28371 28370 28369 28368 28366 28365 28364 28362 28360 28359 28358 28357 28356 28354 28352 28351 28349 28348 28347 28346 28343 28342 28340 28339 28338 28337 28336 28334 28333 28329 28328 28327 28326 28325 28322 28321 28319 28318 28317 28316 28315 28314 28313 28312 28309 28307 28304 28303 28302 28301 28300 28299 28298 28296 28295 28293 28292 28287 28286 28284 28283 28281 28280 28279 28277 28275 28274 28271 28269 28265 28264 28260 28259 28258 28255 28254 28253 28252 28250 28247 28246 28245 28244 28243 28242 28240 28239 28238 28237 28236 28235 28234 28232 28231 28230 28229 28228 28226 28225 28224 28222 28221 28220 28219 28218 28217 28215 28213 28212 28211 28210 28206 28205 28204 28200 28199 28198 28197 28196 28194 28193 28191 28189 28186 28185 28184 28183 28182 28181 28180 28178 28177 28176 28175 28174 28173 28172 28170 28169 28168 28165 28164 28162 28161 28159 28158 28157 28156 28154 28153 28151 28150 28149 28147 28144 28143 28142 28141 28140 28139 28137 28136 28134 28131 28130 28129 28128 28126 28125 28124 28123 28122 28121 28120 28119 28118 28117 28115 28114 28112 28111 28110 28109 28107 28106 28101 28099 28097 28095 28093 28091 28090 28089 28088 28084 28082 28081 28079 28077 28071 28070 28069 28068 28066 28065 28063 28062 28061 28060 28059 28057 28056 28055 28054 28053 28050 28048 28047 28046 28045 28044 28041 28040 28038 28037 28035 28034 28032 28030 28027 28026 28024 28023 28021 28020 28019 28016 28014 28013 28012 28009 28008 28007 28006 28005 28004 28002 28001 28000 27997 27996 27993 27992 27991 27990 27989 27988 27986 27985 27981 27979 27978 27977 27975 27974 27973 27972 27971 27970 27969 27966 27965 27964 27962 27960 27959 27957 27956 27954 27952 27951 27950 27949 27948 27947 27944 27942 27938 27937 27936 27933 27932 27931 27929 27926 27925 27924 27920 27918 27917 27913 27912 27911 27910 27909 27908 27907 27904 27903 27902 27901 27900 27899 27898 27895 27894 27890 27886 27885 27884 27882 27881 27880 27879 27877 27876 27874 27871 27870 27869 27868 27867 27864 27863 27860 27859 27857 27855 27854 27853 27851 27850 27848 27847 27846 27845 27844 27842 27841 27840 27839 27838 27833 27832 27831 27830 27829 27828 27827 27824 27823 27822 27821 27820 27815 27813 27812 27811 27810 27809 27806 27805 27803 27801 27799 27798 27797 27796 27795 27794 27793 27791 27790 27789 27788 27787 27785 27784 27783 27782 27781 27780 27779 27778 27776 27775 27774 27773 27771 27769 27768 27767 27766 27765 27764 27763 27760 27759 27758 27754 27753 27752 27751 27747 27745 27744 27743 27741 27740 27739 27738 27737 27736 27735 27734 27733 27732 27731 27726 27725 27724 27723 27722 27721 27720 27719 27718 27717 27716 27715 27714 27713 27712 27710 27707 27706 27704 27703 27702 27701 27700 27696 27695 27694 27693 27692 27690 27689 27685 27684 27683 27681 27678 27677 27675 27674 27672 27670 27669 27668 27665 27663 27662 27660 27658 27657 27656 27655 27654 27653 27652 27650 27649 27648 27645 27644 27642 27640 27639 27638 27637 27636 27635 27634 27631 27629 27628 27627 27626 27619 27618 27617 27615 27613 27612 27611 27609 27608 27607 27606 27605 27604 27603 27602 27601 27600 27598 27597 27596 27595 27594 27593 27592 27591 27590 27589 27588 27587 27586 27585 27582 27580 27577 27576 27575 27572 27571 27570 27566 27565 27564 27563 27562 27559 27558 27557 27556 27555 27554 27550 27548 27547 27546 27543 27542 27541 27540 27539 27538 27537 27535 27534 27533 27531 27529 27528 27527 27526 27525 27523 27520 27519 27518 27516 27514 27512 27511 27510 27509 27508 27507 27505 27504 27502 27501 27498 27496 27495 27494 27493 27492 27490 27488 27487 27486 27483 27482 27481 27480 27478 27477 27476 27475 27474 27472 27471 27468 27467 27465 27464 27463 27462 27458 27457 27456 27453 27452 27450 27448 27447 27446 27445 27443 27441 27440 27438 27437 27436 27434 27433 27432 27431 27430 27428 27427 27426 27425 27424 27423 27422 27421 27420 27417 27416 27415 27413 27412 27411 27408 27407 27405 27403 27402 27401 27400 27399 27398 27396 27395 27393 27392 27391 27387 27385 27380 27379 27378 27377 27376 27374 27373 27372 27371 27369 27367 27366 27365 27364 27360 27359 27357 27356 27355 27354 27353 27352 27351 27350 27346 27345 27343 27342 27338 27337 27336 27335 27332 27330 27329 27328 27324 27323 27321 27320 27317 27316 27314 27313 27311 27309 27308 27305 27302 27301 27300 27299 27297 27296 27295 27294 27292 27291 27290 27288 27287 27286 27285 27284 27282 27281 27280 27278 27277 27276 27274 27271 27270 27269 27268 27267 27266 27264 27263 27262 27261 27260 27258 27257 27255 27254 27253 27252 27251 27249 27248 27247 27245 27242 27241 27240 27239 27238 27237 27236 27233 27232 27231 27230 27228 27226 27224 27223 27221 27219 27218 27216 27215 27214 27213 27212 27210 27209 27208 27207 27206 27205 27202 27201 27200 27198 27197 27195 27191 27189 27188 27187 27186 27185 27184 27183 27182 27181 27180 27177 27176 27175 27174 27173 27172 27171 27169 27166 27165 27164 27163 27162 27161 27160 27159 27158 27157 27155 27154 27150 27148 27147 27146 27145 27143 27142 27141 27140 27138 27136 27135 27132 27131 27130 27128 27127 27126 27125 27124 27123 27122 27118 27116 27114 27113 27112 27111 27110 27109 27108 27106 27105 27103 27101 27100 27099 27098 27097 27096 27094 27090 27089 27086 27084 27083 27081 27079 27076 27075 27074 27072 27071 27070 27069 27067 27066 27064 27062 27060 27059 27058 27057 27056 27054 27053 27052 27049 27046 27045 27042 27040 27039 27036 27034 27033 27032 27031 27028 27026 27024 27023 27022 27018 27017 27016 27015 27014 27011 27010 27009 27008 27006 27004 27003 27002 27001 27000 26998 26997 26995 26994 26993 26992 26991 26990 26989 26988 26987 26985 26984 26983 26981 26977 26976 26975 26973 26972 26971 26970 26968 26966 26965 26964 26962 26961 26959 26958 26957 26956 26955 26953 26952 26951 26949 26948 26947 26946 26945 26943 26942 26941 26940 26938 26935 26931 26930 26929 26928 26926 26925 26923 26922 26921 26920 26918 26917 26916 26915 26914 26913 26912 26911 26909 26907 26905 26902 26901 26899 26898 26896 26895 26894 26893 26892 26891 26890 26888 26887 26886 26885 26884 26883 26882 26881 26878 26877 26876 26875 26873 26872 26871 26870 26869 26868 26867 26861 26860 26859 26858 26857 26856 26853 26848 26847 26846 26844 26843 26842 26841 26838 26835 26834 26832 26830 26828 26827 26826 26823 26822 26821 26820 26818 26817 26816 26815 26814 26811 26809 26808 26806 26805 26804 26803 26802 26801 26798 26797 26796 26794 26793 26791 26789 26788 26787 26786 26784 26783 26782 26781 26779 26778 26775 26774 26773 26770 26766 26765 26760 26759 26758 26757 26755 26754 26752 26751 26750 26748 26746 26745 26744 26743 26742 26741 26740 26736 26735 26734 26733 26731 26730 26729 26727 26726 26725 26722 26718 26717 26716 26714 26711 26710 26709 26708 26707 26706 26705 26703 26702 26700 26698 26696 26695 26692 26691 26688 26687 26685 26684 26683 26682 26681 26678 26677 26676 26674 26671 26668 26667 26664 26663 26662 26660 26659 26658 26657 26656 26654 26653 26651 26650 26649 26648 26647 26646 26645 26644 26642 26641 26640 26639 26638 26637 26636 26632 26631 26630 26627 26625 26624 26623 26621 26620 26619 26617 26616 26615 26614 26613 26612 26610 26609 26607 26606 26603 26601 26599 26598 26597 26596 26595 26592 26591 26590 26588 26587 26586 26584 26582 26580 26578 26577 26576 26575 26574 26572 26570 26569 26567 26566 26565 26563 26562 26561 26560 26558 26555 26554 26553 26552 26551 26549 26548 26547 26542 26541 26540 26539 26537 26536 26535 26534 26531 26530 26529 26527 26526 26523 26522 26521 26520 26519 26518 26517 26516 26515 26511 26510 26509 26508 26504 26503 26502 26501 26497 26495 26494 26493 26492 26490 26488 26486 26485 26484 26483 26482 26480 26479 26478 26476 26473 26471 26470 26469 26467 26465 26463 26460 26455 26454 26453 26451 26449 26448 26447 26444 26443 26442 26437 26436 26432 26431 26428 26427 26426 26425 26424 26423 26422 26421 26420 26419 26418 26414 26412 26410 26407 26404 26402 26401 26400 26399 26398 26397 26393 26390 26389 26388 26387 26386 26385 26384 26383 26381 26380 26379 26378 26376 26374 26371 26370 26369 26368 26367 26366 26365 26362 26361 26357 26356 26355 26354 26353 26352 26351 26350 26349 26347 26346 26345 26344 26343 26341 26340 26339 26337 26336 26330 26329 26328 26327 26326 26325 26324 26323 26321 26320 26319 26318 26317 26316 26313 26312 26311 26310 26308 26307 26306 26302 26299 26298 26297 26296 26294 26291 26288 26287 26286 26285 26284 26283 26282 26279 26278 26277 26273 26271 26269 26267 26265 26264 26263 26262 26261 26260 26257 26255 26254 26252 26251 26250 26243 26241 26240 26239 26237 26236 26235 26234 26233 26232 26231 26230 26229 26228 26224 26222 26221 26219 26218 26217 26214 26213 26211 26210 26209 26208 26207 26203 26202 26201 26199 26198 26195 26193 26192 26189 26187 26186 26185 26184 26183 26180 26179 26176 26174 26173 26172 26170 26169 26168 26166 26160 26159 26157 26156 26155 26153 26150 26149 26148 26147 26146 26145 26143 26142 26141 26140 26138 26137 26134 26131 26129 26127 26123 26122 26121 26119 26118 26117 26115 26113 26112 26111 26110 26109 26108 26106 26105 26104 26103 26101 26096 26094 26093 26092 26091 26088 26087 26085 26082 26081 26080 26079 26078 26073 26072 26071 26070 26069 26068 26067 26066 26064 26062 26061 26059 26058 26056 26055 26054 26053 26051 26050 26049 26048 26047 26046 26045 26044 26043 26042 26041 26037 26036 26035 26034 26033 26032 26031 26030 26029 26028 26025 26024 26023 26022 26020 26019 26018 26013 26011 26009 26008 26007 26006 26005 26003 26002 26001 26000 25999 25998 25997 25996 25994 25993 25992 25991 25990 25988 25985 25982 25980 25978 25976 25974 25973 25971 25970 25968 25967 25966 25965 25964 25962 25961 25960 25958 25953 25949 25947 25946 25945 25943 25941 25939 25938 25937 25935 25931 25930 25928 25927 25926 25925 25923 25921 25919 25915 25914 25913 25911 25909 25907 25906 25903 25902 25899 25898 25897 25896 25895 25894 25893 25892 25891 25890 25889 25888 25885 25884 25880 25879 25878 25875 25873 25871 25870 25865 25863 25862 25859 25856 25852 25851 25850 25849 25847 25846 25843 25841 25840 25839 25838 25837 25836 25834 25833 25832 25831 25829 25828 25825 25824 25823 25822 25821 25820 25819 25818 25817 25816 25815 25814 25812 25811 25810 25809 25807 25806 25804 25800 25799 25798 25797 25796 25792 25791 25790 25785 25784 25783 25780 25779 25778 25775 25773 25772 25771 25769 25768 25766 25763 25762 25759 25757 25756 25755 25754 25752 25751 25746 25744 25742 25741 25738 25736 25735 25733 25732 25731 25730 25729 25727 25726 25724 25723 25722 25720 25719 25718 25717 25716 25714 25712 25711 25710 25708 25707 25705 25704 25703 25702 25701 25700 25698 25697 25696 25694 25693 25692 25691 25688 25687 25685 25684 25683 25682 25680 25678 25674 25672 25669 25667 25665 25664 25662 25661 25660 25658 25657 25656 25655 25654 25653 25652 25650 25649 25646 25644 25643 25642 25641 25640 25639 25638 25637 25636 25635 25634 25632 25631 25628 25627 25625 25624 25621 25618 25616 25615 25614 25612 25610 25608 25607 25605 25604 25603 25601 25600 25599 25597 25596 25595 25594 25593 25592 25591 25589 25588 25587 25586 25584 25583 25582 25581 25580 25579 25578 25575 25573 25572 25571 25570 25569 25568 25567 25566 25565 25561 25559 25558 25557 25556 25555 25554 25553 25552 25547 25546 25545 25544 25542 25540 25538 25537 25536 25534 25533 25532 25531 25530 25529 25528 25527 25524 25523 25520 25519 25518 25517 25516 25515 25512 25509 25508 25507 25506 25505 25504 25503 25502 25501 25499 25498 25497 25496 25493 25491 25490 25489 25487 25485 25484 25483 25481 25479 25477 25475 25471 25470 25468 25467 25466 25465 25462 25461 25460 25459 25458 25457 25456 25454 25453 25451 25450 25448 25445 25444 25443 25442 25441 25440 25438 25437 25436 25435 25433 25431 25430 25429 25428 25427 25426 25425 25424 25419 25418 25417 25416 25414 25412 25409 25407 25406 25405 25404 25403 25402 25401 25400 25399 25396 25395 25394 25393 25392 25391 25390 25389 25388 25387 25385 25383 25382 25381 25380 25379 25378 25377 25376 25373 25372 25370 25367 25366 25365 25363 25361 25360 25359 25358 25357 25355 25352 25351 25350 25349 25347 25345 25344 25343 25342 25341 25340 25338 25337 25336 25335 25333 25332 25331 25330 25329 25328 25327 25326 25324 25322 25319 25318 25315 25312 25311 25305 25304 25303 25302 25301 25299 25298 25297 25296 25295 25294 25293 25292 25291 25289 25288 25287 25286 25285 25284 25283 25282 25281 25279 25278 25276 25275 25271 25270 25268 25267 25265 25264 25263 25262 25261 25260 25257 25256 25255 25253 25252 25251 25250 25249 25245 25243 25242 25241 25238 25237 25234 25233 25232 25231 25230 25229 25228 25226 25225 25221 25220 25218 25217 25215 25213 25212 25211 25209 25208 25206 25205 25203 25202 25201 25199 25198 25197 25196 25195 25194 25193 25191 25189 25187 25185 25184 25183 25181 25180 25178 25175 25174 25172 25171 25169 25168 25166 25165 25163 25161 25160 25159 25158 25157 25156 25155 25153 25152 25147 25146 25145 25143 25140 25138 25137 25134 25133 25132 25131 25130 25129 25128 25127 25126 25124 25123 25122 25121 25120 25119 25117 25115 25114 25113 25112 25108 25106 25105 25104 25103 25101 25100 25099 25097 25095 25094 25093 25092 25090 25087 25086 25082 25081 25080 25077 25076 25075 25074 25073 25072 25070 25069 25068 25065 25064 25063 25062 25061 25060 25059 25058 25053 25051 25050 25049 25048 25047 25046 25045 25043 25041 25040 25039 25036 25035 25034 25033 25032 25030 25029 25028 25027 25026 25025 25024 25022 25021 25020 25019 25018 25014 25012 25011 25009 25005 25004 25003 25002 25001 25000 24999 24997 24995 24993 24992 24991 24990 24988 24986 24985 24978 24976 24975 24972 24971 24968 24966 24964 24963 24962 24961 24960 24959 24957 24955 24954 24952 24951 24950 24949 24948 24945 24944 24942 24940 24938 24937 24934 24933 24932 24931 24930 24929 24928 24927 24926 24925 24922 24921 24920 24919 24917 24916 24915 24914 24913 24912 24911 24910 24907 24905 24904 24903 24902 24901 24898 24897 24889 24888 24886 24882 24881 24879 24877 24875 24873 24872 24871 24870 24869 24868 24867 24866 24864 24863 24861 24860 24859 24858 24856 24854 24853 24852 24851 24850 24846 24845 24842 24840 24839 24838 24837 24836 24835 24832 24831 24830 24829 24824 24821 24820 24819 24818 24816 24814 24813 24811 24810 24809 24805 24802 24800 24799 24797 24795 24794 24793 24792 24788 24787 24786 24784 24783 24782 24781 24780 24779 24777 24776 24775 24773 24772 24771 24768 24766 24764 24761 24757 24754 24753 24752 24750 24749 24748 24747 24746 24745 24743 24742 24741 24740 24739 24738 24737 24736 24735 24734 24732 24730 24728 24726 24724 24723 24722 24721 24720 24719 24718 24716 24715 24714 24713 24712 24711 24710 24709 24707 24706 24705 24704 24703 24702 24701 24698 24697 24696 24694 24692 24691 24690 24689 24688 24687 24686 24685 24681 24680 24679 24678 24677 24675 24673 24670 24669 24668 24666 24663 24662 24661 24659 24658 24657 24655 24654 24653 24652 24650 24649 24648 24645 24644 24643 24642 24641 24640 24639 24638 24637 24636 24635 24633 24629 24628 24627 24626 24625 24624 24622 24619 24618 24617 24616 24615 24611 24608 24607 24603 24601 24599 24598 24597 24596 24595 24594 24592 24590 24589 24588 24586 24585 24583 24579 24578 24576 24575 24574 24573 24572 24571 24570 24569 24568 24566 24563 24562 24561 24560 24559 24558 24557 24556 24555 24554 24553 24552 24551 24547 24546 24543 24541 24539 24536 24533 24529 24528 24527 24526 24524 24522 24521 24518 24517 24516 24515 24514 24513 24512 24511 24510 24509 24508 24507 24504 24503 24502 24501 24500 24498 24497 24496 24495 24494 24493 24491 24490 24489 24488 24487 24486 24484 24483 24482 24480 24479 24478 24477 24476 24473 24472 24471 24470 24466 24462 24461 24460 24458 24457 24456 24455 24453 24451 24449 24448 24447 24446 24445 24444 24442 24441 24440 24438 24437 24435 24434 24433 24432 24429 24428 24427 24426 24425 24423 24421 24418 24417 24415 24414 24413 24412 24411 24410 24408 24406 24404 24403 24401 24400 24399 24397 24396 24395 24394 24392 24390 24387 24386 24383 24382 24381 24379 24378 24377 24376 24375 24372 24370 24368 24367 24365 24364 24363 24362 24360 24358 24357 24356 24354 24350 24348 24347 24346 24342 24341 24339 24338 24337 24335 24333 24332 24331 24330 24329 24328 24327 24326 24324 24323 24322 24320 24319 24314 24313 24312 24311 24308 24307 24306 24304 24303 24302 24301 24299 24298 24297 24296 24294 24293 24291 24290 24289 24286 24285 24283 24282 24281 24280 24278 24275 24274 24273 24272 24270 24269 24268 24267 24266 24265 24264 24263 24261 24260 24258 24256 24255 24252 24251 24247 24243 24242 24241 24239 24237 24235 24234 24233 24232 24231 24229 24228 24227 24226 24225 24224 24222 24220 24219 24218 24216 24213 24212 24211 24210 24209 24208 24206 24204 24199 24195 24193 24192 24191 24190 24188 24186 24185 24184 24183 24182 24181 24178 24177 24175 24173 24172 24170 24169 24168 24167 24165 24164 24163 24162 24160 24157 24156 24148 24147 24146 24145 24144 24137 24135 24134 24129 24127 24126 24125 24123 24122 24121 24120 24119 24118 24115 24114 24113 24112 24111 24110 24108 24107 24106 24105 24104 24101 24099 24097 24096 24095 24094 24093 24092 24091 24090 24089 24088 24086 24085 24084 24083 24075 24074 24073 24072 24071 24070 24069 24068 24067 24066 24065 24064 24062 24061 24058 24057 24056 24055 24054 24052 24049 24048 24047 24046 24045 24044 24043 24042 24040 24039 24038 24036 24035 24034 24028 24027 24026 24024 24023 24022 24020 24017 24016 24014 24013 24012 24011 24010 24009 24008 24005 24002 24001 24000 23998 23997 23995 23994 23991 23989 23988 23985 23982 23981 23980 23979 23978 23977 23976 23975 23969 23968 23966 23965 23964 23963 23962 23960 23957 23956 23955 23954 23953 23950 23949 23946 23945 23944 23943 23941 23940 23938 23937 23935 23932 23931 23929 23928 23927 23923 23919 23917 23916 23915 23912 23911 23909 23907 23905 23903 23902 23901 23900 23899 23898 23896 23895 23894 23892 23891 23890 23889 23888 23886 23884 23881 23878 23877 23876 23875 23874 23872 23870 23869 23868 23867 23866 23865 23863 23861 23860 23859 23857 23856 23855 23854 23852 23851 23849 23846 23845 23843 23842 23841 23838 23837 23836 23835 23834 23833 23830 23828 23827 23826 23825 23824 23822 23821 23820 23819 23818 23817 23815 23814 23813 23811 23809 23808 23807 23802 23800 23799 23798 23797 23794 23791 23790 23789 23788 23785 23784 23782 23780 23779 23777 23776 23774 23772 23771 23769 23767 23765 23764 23762 23761 23760 23759 23757 23756 23754 23753 23751 23749 23748 23747 23746 23745 23744 23743 23742 23741 23740 23739 23738 23736 23735 23734 23733 23732 23731 23730 23728 23726 23725 23723 23720 23719 23718 23717 23716 23715 23714 23713 23711 23710 23709 23708 23707 23706 23705 23704 23703 23702 23701 23700 23699 23697 23696 23695 23694 23692 23690 23689 23688 23687 23684 23682 23681 23678 23677 23676 23675 23674 23673 23671 23670 23669 23664 23663 23662 23661 23660 23659 23658 23657 23656 23655 23654 23653 23652 23651 23650 23649 23646 23645 23643 23642 23641 23640 23639 23637 23635 23634 23633 23632 23631 23630 23629 23628 23626 23624 23622 23621 23619 23618 23616 23615 23614 23613 23612 23610 23609 23608 23607 23605 23604 23603 23602 23601 23600 23599 23595 23594 23593 23591 23590 23589 23588 23586 23585 23584 23583 23582 23576 23575 23574 23573 23572 23571 23570 23569 23568 23567 23566 23565 23564 23561 23560 23557 23555 23554 23553 23552 23551 23549 23547 23546 23545 23543 23541 23540 23539 23538 23537 23536 23535 23533 23531 23530 23528 23526 23524 23522 23521 23520 23519 23518 23516 23513 23511 23510 23507 23506 23505 23504 23503 23501 23497 23496 23495 23492 23491 23490 23489 23488 23487 23486 23485 23483 23482 23481 23479 23478 23475 23474 23473 23472 23471 23470 23469 23468 23467 23466 23465 23462 23460 23459 23458 23457 23455 23454 23452 23450 23449 23448 23446 23445 23444 23442 23441 23439 23438 23437 23436 23434 23431 23430 23429 23428 23427 23425 23424 23420 23418 23416 23415 23412 23411 23409 23406 23405 23404 23403 23401 23400 23399 23397 23396 23395 23394 23393 23392 23391 23390 23387 23385 23384 23381 23380 23379 23378 23377 23375 23374 23373 23372 23369 23368 23367 23364 23363 23361 23360 23358 23357 23355 23354 23352 23347 23346 23345 23344 23343 23340 23339 23338 23336 23335 23332 23330 23329 23328 23327 23326 23325 23321 23319 23314 23313 23312 23311 23310 23309 23308 23306 23304 23303 23301 23300 23298 23297 23296 23295 23294 23293 23292 23291 23289 23288 23287 23286 23285 23284 23282 23279 23277 23275 23273 23269 23268 23267 23266 23263 23261 23260 23258 23255 23254 23253 23252 23250 23249 23248 23247 23245 23242 23236 23235 23234 23233 23232 23230 23229 23228 23226 23225 23224 23223 23221 23219 23217 23214 23213 23212 23211 23210 23207 23206 23205 23204 23202 23201 23200 23199 23198 23195 23189 23185 23184 23183 23182 23181 23179 23178 23173 23172 23171 23170 23168 23166 23165 23163 23161 23159 23158 23155 23154 23152 23151 23150 23149 23148 23147 23146 23145 23144 23143 23140 23139 23136 23135 23134 23133 23132 23130 23129 23126 23125 23124 23123 23121 23118 23117 23115 23114 23113 23112 23110 23108 23106 23105 23104 23103 23100 23099 23098 23097 23096 23094 23092 23090 23088 23087 23086 23085 23083 23082 23079 23077 23074 23073 23072 23071 23070 23068 23066 23064 23063 23062 23057 23055 23054 23053 23051 23049 23048 23046 23045 23043 23042 23040 23038 23037 23035 23033 23032 23031 23028 23027 23026 23025 23024 23023 23022 23020 23019 23018 23017 23016 23015 23012 23010 23007 23006 23005 23004 23001 23000 22998 22997 22996 22995 22994 22991 22990 22988 22986 22985 22983 22981 22979 22977 22976 22973 22972 22970 22969 22968 22967 22966 22965 22964 22963 22961 22958 22957 22956 22955 22954 22948 22947 22946 22945 22944 22943 22942 22941 22940 22939 22935 22934 22933 22932 22930 22929 22928 22925 22924 22921 22919 22918 22917 22916 22915 22914 22913 22912 22911 22910 22909 22907 22903 22901 22899 22897 22896 22895 22892 22891 22889 22888 22887 22885 22884 22882 22881 22880 22879 22878 22877 22875 22873 22872 22871 22870 22869 22868 22866 22864 22861 22858 22857 22856 22855 22854 22853 22851 22850 22849 22848 22846 22845 22844 22843 22842 22841 22840 22838 22837 22836 22835 22834 22833 22832 22831 22830 22827 22826 22823 22821 22818 22817 22816 22815 22814 22811 22809 22808 22807 22803 22802 22800 22799 22798 22797 22796 22795 22793 22791 22790 22789 22787 22785 22784 22783 22781 22779 22778 22776 22773 22769 22768 22767 22766 22764 22763 22762 22761 22759 22758 22756 22755 22754 22753 22752 22750 22749 22741 22738 22737 22736 22735 22734 22732 22731 22730 22728 22726 22725 22724 22723 22722 22721 22720 22719 22718 22717 22716 22715 22713 22712 22710 22708 22706 22705 22703 22702 22701 22700 22699 22698 22697 22695 22694 22693 22692 22691 22690 22688 22687 22686 22683 22682 22677 22676 22675 22674 22672 22671 22668 22666 22665 22664 22663 22662 22661 22660 22659 22658 22657 22656 22655 22653 22652 22648 22647 22646 22645 22643 22642 22641 22640 22639 22638 22636 22635 22634 22633 22632 22631 22630 22629 22628 22625 22624 22623 22621 22620 22619 22618 22616 22615 22614 22612 22611 22610 22608 22607 22604 22601 22600 22599 22598 22596 22595 22593 22591 22590 22589 22588 22587 22584 22582 22581 22580 22579 22578 22577 22576 22573 22570 22566 22565 22564 22561 22560 22559 22558 22557 22556 22555 22553 22552 22551 22550 22547 22546 22543 22542 22540 22539 22538 22537 22536 22535 22534 22533 22532 22531 22530 22529 22528 22527 22526 22525 22524 22522 22521 22518 22517 22516 22513 22511 22510 22508 22507 22506 22504 22502 22499 22497 22495 22493 22492 22491 22490 22489 22488 22487 22486 22485 22484 22483 22481 22480 22479 22478 22477 22476 22475 22474 22473 22469 22468 22467 22466 22465 22464 22463 22462 22461 22459 22457 22454 22453 22452 22450 22448 22447 22446 22445 22444 22441 22437 22436 22435 22434 22432 22430 22429 22428 22426 22425 22422 22421 22420 22419 22418 22417 22416 22413 22412 22411 22410 22409 22408 22407 22405 22404 22402 22401 22400 22398 22397 22396 22395 22394 22392 22391 22390 22388 22387 22386 22385 22384 22383 22382 22381 22380 22378 22377 22376 22374 22373 22372 22371 22369 22368 22367 22366 22365 22364 22360 22359 22358 22357 22356 22355 22354 22353 22352 22351 22350 22349 22347 22344 22343 22342 22341 22340 22336 22335 22333 22331 22330 22329 22327 22325 22324 22323 22321 22320 22319 22318 22317 22315 22314 22313 22312 22311 22308 22307 22306 22303 22302 22301 22298 22297 22296 22295 22294 22293 22292 22291 22290 22289 22288 22287 22286 22285 22284 22282 22281 22280 22279 22274 22273 22272 22271 22269 22268 22265 22262 22261 22260 22258 22257 22256 22254 22253 22250 22249 22248 22247 22246 22245 22244 22241 22240 22239 22238 22237 22236 22235 22234 22233 22232 22231 22229 22228 22227 22226 22224 22223 22220 22219 22217 22216 22214 22212 22211 22208 22206 22204 22203 22201 22197 22196 22195 22194 22193 22192 22191 22188 22187 22185 22184 22182 22180 22179 22178 22176 22175 22172 22171 22169 22168 22167 22166 22165 22164 22163 22162 22161 22156 22155 22154 22153 22151 22150 22149 22148 22146 22145 22144 22143 22142 22141 22139 22135 22134 22131 22130 22129 22127 22126 22125 22124 22122 22121 22120 22118 22116 22115 22114 22113 22112 22110 22109 22108 22105 22104 22102 22100 22099 22098 22094 22093 22092 22091 22090 22089 22088 22086 22085 22084 22083 22082 22081 22078 22077 22075 22074 22073 22072 22070 22068 22067 22066 22065 22064 22063 22062 22061 22059 22058 22057 22056 22055 22053 22052 22050 22049 22048 22046 22045 22044 22043 22042 22041 22040 22039 22035 22033 22032 22030 22026 22025 22024 22022 22021 22020 22019 22018 22017 22016 22015 22014 22013 22011 22010 22009 22008 22006 22004 22000 21999 21995 21993 21992 21990 21988 21983 21982 21980 21979 21978 21976 21975 21973 21972 21968 21966 21965 21963 21962 21960 21958 21957 21956 21955 21954 21952 21951 21950 21949 21948 21947 21945 21944 21942 21941 21940 21939 21938 21937 21935 21932 21931 21930 21928 21927 21926 21924 21922 21921 21920 21919 21917 21916 21915 21914 21912 21910 21908 21907 21906 21905 21904 21903 21902 21900 21896 21894 21893 21892 21891 21889 21887 21886 21885 21882 21881 21878 21877 21876 21875 21874 21873 21869 21868 21867 21865 21862 21860 21857 21856 21855 21853 21849 21848 21846 21845 21843 21842 21841 21838 21837 21836 21834 21833 21832 21830 21829 21828 21827 21826 21825 21824 21823 21821 21820 21819 21818 21817 21816 21815 21814 21813 21811 21810 21809 21808 21805 21804 21803 21802 21801 21800 21793 21792 21790 21788 21786 21785 21782 21781 21780 21779 21778 21777 21776 21775 21774 21773 21772 21770 21769 21767 21764 21762 21761 21760 21759 21757 21756 21755 21753 21752 21750 21749 21748 21747 21746 21744 21742 21741 21738 21737 21736 21734 21732 21731 21730 21729 21727 21725 21724 21723 21722 21720 21719 21718 21717 21716 21715 21713 21708 21706 21704 21703 21701 21700 21697 21696 21695 21694 21693 21690 21689 21687 21686 21685 21683 21682 21680 21679 21678 21677 21674 21672 21671 21670 21669 21666 21665 21664 21662 21659 21657 21656 21655 21654 21653 21651 21650 21646 21645 21644 21642 21641 21640 21637 21635 21634 21633 21630 21625 21624 21622 21621 21620 21618 21617 21616 21615 21614 21613 21612 21611 21610 21609 21608 21607 21606 21605 21604 21603 21602 21600 21599 21598 21596 21595 21594 21593 21591 21590 21589 21588 21586 21585 21580 21579 21578 21577 21576 21575 21573 21571 21570 21569 21568 21566 21565 21564 21563 21562 21561 21560 21557 21555 21554 21550 21548 21543 21542 21540 21538 21537 21536 21534 21533 21531 21530 21529 21528 21527 21525 21524 21522 21521 21520 21517 21515 21513 21512 21510 21509 21508 21507 21506 21505 21504 21503 21502 21501 21498 21497 21496 21495 21494 21493 21490 21488 21487 21485 21484 21483 21482 21481 21480 21478 21475 21474 21473 21471 21468 21467 21465 21464 21462 21461 21459 21458 21457 21456 21455 21454 21453 21451 21450 21449 21448 21447 21446 21444 21443 21442 21440 21439 21436 21434 21433 21432 21430 21429 21428 21426 21425 21424 21423 21422 21421 21420 21419 21418 21415 21414 21413 21410 21409 21408 21405 21404 21402 21397 21396 21395 21393 21392 21391 21390 21387 21386 21385 21384 21383 21382 21381 21379 21376 21375 21374 21372 21371 21370 21369 21368 21366 21365 21364 21363 21362 21359 21358 21357 21356 21355 21354 21353 21352 21350 21348 21346 21345 21344 21343 21342 21340 21339 21337 21336 21335 21333 21331 21330 21329 21328 21327 21326 21325 21324 21323 21322 21321 21320 21319 21317 21316 21315 21314 21312 21311 21310 21308 21307 21306 21305 21304 21301 21299 21298 21297 21295 21293 21292 21291 21289 21288 21287 21285 21284 21283 21281 21279 21278 21275 21274 21271 21270 21268 21267 21264 21263 21262 21261 21260 21256 21255 21253 21252 21250 21249 21247 21246 21245 21244 21243 21242 21241 21240 21239 21238 21237 21236 21233 21232 21231 21226 21225 21224 21223 21221 21218 21216 21215 21212 21210 21208 21207 21206 21205 21204 21203 21202 21198 21195 21194 21192 21191 21190 21189 21187 21185 21183 21182 21180 21179 21177 21175 21173 21170 21168 21167 21165 21163 21162 21161 21160 21159 21158 21157 21155 21153 21151 21150 21149 21148 21147 21146 21144 21143 21141 21140 21139 21138 21137 21136 21135 21134 21133 21132 21130 21129 21128 21127 21126 21124 21123 21122 21120 21119 21118 21117 21116 21113 21109 21108 21105 21104 21103 21102 21100 21098 21096 21094 21093 21091 21090 21089 21088 21087 21086 21085 21083 21082 21081 21080 21079 21078 21075 21073 21070 21069 21067 21066 21063 21061 21059 21058 21057 21056 21055 21054 21051 21050 21049 21047 21046 21045 21044 21042 21041 21039 21038 21037 21036 21034 21031 21030 21029 21027 21026 21025 21021 21020 21019 21018 21017 21014 21012 21011 21008 21007 21004 21002 21001 20999 20998 20997 20995 20993 20991 20990 20989 20987 20986 20985 20984 20983 20982 20981 20980 20978 20977 20976 20974 20973 20972 20970 20969 20967 20966 20964 20963 20962 20959 20958 20957 20955 20952 20949 20948 20947 20946 20945 20944 20941 20940 20939 20937 20936 20934 20933 20932 20931 20929 20928 20925 20924 20921 20919 20918 20917 20913 20911 20910 20909 20908 20905 20904 20903 20899 20898 20893 20892 20891 20890 20889 20888 20887 20885 20884 20882 20879 20877 20876 20875 20873 20872 20871 20870 20868 20866 20865 20864 20863 20862 20861 20860 20859 20856 20855 20854 20853 20851 20850 20848 20847 20846 20845 20844 20843 20842 20841 20840 20839 20838 20837 20836 20835 20834 20831 20829 20828 20827 20826 20825 20824 20823 20822 20821 20819 20816 20814 20812 20810 20809 20808 20805 20804 20803 20802 20801 20799 20798 20796 20795 20791 20790 20789 20787 20785 20783 20782 20779 20778 20777 20776 20775 20773 20771 20770 20768 20767 20766 20765 20763 20761 20759 20758 20757 20755 20753 20751 20749 20748 20747 20746 20744 20743 20741 20740 20739 20738 20736 20735 20734 20732 20728 20727 20726 20725 20723 20722 20720 20718 20717 20714 20712 20711 20708 20707 20706 20703 20701 20699 20698 20697 20695 20693 20691 20690 20689 20684 20680 20679 20678 20676 20675 20674 20672 20671 20670 20666 20665 20664 20661 20660 20654 20653 20652 20651 20650 20648 20646 20645 20644 20642 20641 20639 20637 20636 20634 20633 20631 20627 20626 20625 20624 20620 20618 20617 20616 20615 20614 20613 20612 20611 20610 20609 20607 20606 20605 20600 20598 20596 20595 20593 20591 20590 20589 20588 20587 20586 20584 20583 20580 20578 20576 20575 20574 20573 20570 20569 20568 20567 20566 20564 20560 20558 20556 20555 20554 20553 20552 20551 20550 20548 20544 20542 20541 20539 20538 20537 20530 20529 20528 20526 20525 20524 20522 20519 20518 20517 20515 20514 20513 20511 20508 20507 20506 20505 20504 20503 20499 20498 20497 20496 20495 20493 20492 20489 20488 20487 20486 20485 20484 20483 20482 20481 20480 20478 20477 20476 20474 20471 20470 20469 20468 20467 20466 20465 20464 20463 20462 20461 20460 20458 20457 20456 20455 20454 20452 20451 20449 20448 20447 20446 20444 20442 20440 20437 20434 20433 20432 20431 20429 20428 20427 20426 20425 20424 20423 20422 20421 20420 20419 20417 20416 20413 20412 20407 20406 20404 20401 20400 20399 20398 20397 20394 20393 20392 20391 20389 20388 20387 20386 20384 20383 20382 20381 20380 20378 20377 20376 20375 20374 20373 20371 20369 20367 20365 20364 20361 20358 20357 20355 20354 20352 20351 20350 20349 20347 20346 20345 20343 20341 20340 20339 20337 20336 20334 20333 20331 20330 20329 20328 20327 20326 20325 20322 20321 20320 20319 20317 20316 20313 20312 20309 20307 20306 20304 20303 20302 20301 20300 20297 20296 20295 20293 20292 20289 20281 20280 20279 20277 20276 20274 20272 20270 20269 20268 20267 20265 20264 20263 20262 20261 20260 20259 20257 20255 20254 20253 20252 20250 20249 20248 20246 20245 20244 20242 20241 20239 20238 20237 20236 20234 20233 20232 20231 20229 20227 20226 20224 20221 20220 20219 20218 20216 20215 20214 20213 20211 20210 20209 20208 20207 20206 20205 20204 20203 20201 20199 20198 20196 20194 20192 20191 20190 20189 20188 20182 20181 20178 20177 20176 20175 20173 20172 20171 20169 20168 20166 20165 20164 20163 20162 20160 20159 20158 20157 20154 20153 20151 20149 20148 20147 20146 20145 20144 20142 20141 20140 20139 20138 20137 20135 20133 20132 20129 20128 20127 20126 20125 20124 20123 20122 20120 20119 20118 20115 20114 20111 20109 20108 20107 20106 20105 20104 20102 20100 20099 20098 20096 20093 20092 20091 20089 20088 20087 20086 20085 20083 20082 20080 20078 20077 20076 20075 20073 20072 20069 20068 20067 20066 20065 20064 20063 20062 20060 20058 20057 20056 20054 20053 20052 20051 20050 20049 20048 20047 20046 20045 20043 20041 20040 20039 20038 20037 20036 20035 20034 20028 20027 20026 20025 20024 20021 20016 20015 20014 20013 20012 20009 20008 20005 20004 20003 20002 20001 20000 19998 19995 19994 19993 19992 19991 19990 19989 19988 19985 19984 19983 19982 19979 19978 19977 19975 19973 19972 19971 19967 19965 19964 19963 19962 19961 19960 19959 19958 19957 19956 19955 19952 19951 19947 19946 19945 19944 19942 19941 19940 19939 19937 19935 19933 19931 19930 19929 19928 19927 19924 19923 19922 19921 19919 19918 19917 19916 19915 19914 19913 19911 19910 19908 19907 19904 19898 19897 19896 19895 19894 19893 19892 19891 19889 19888 19886 19884 19881 19878 19876 19875 19871 19870 19869 19868 19866 19865 19864 19863 19862 19860 19859 19857 19856 19854 19853 19852 19849 19847 19846 19844 19843 19842 19841 19840 19839 19837 19836 19835 19834 19833 19831 19829 19828 19826 19825 19824 19823 19822 19821 19820 19819 19818 19816 19815 19814 19813 19812 19811 19810 19809 19808 19807 19806 19805 19803 19802 19798 19795 19794 19792 19791 19790 19789 19788 19787 19786 19785 19783 19782 19781 19780 19778 19777 19776 19774 19773 19772 19771 19769 19767 19766 19765 19761 19759 19758 19756 19753 19750 19749 19748 19744 19742 19741 19739 19735 19734 19729 19726 19725 19723 19722 19721 19720 19719 19717 19716 19715 19713 19712 19710 19707 19705 19704 19703 19701 19700 19699 19697 19696 19695 19693 19691 19689 19687 19686 19685 19684 19683 19682 19681 19680 19679 19677 19676 19674 19673 19670 19669 19668 19666 19665 19664 19663 19662 19661 19660 19659 19658 19656 19655 19654 19653 19652 19648 19647 19646 19644 19643 19642 19641 19640 19639 19637 19636 19633 19632 19630 19629 19626 19625 19624 19623 19621 19618 19616 19615 19613 19612 19611 19610 19607 19605 19603 19602 19601 19600 19599 19598 19596 19594 19593 19591 19590 19589 19587 19586 19585 19584 19583 19582 19581 19578 19576 19575 19574 19573 19570 19569 19568 19567 19565 19564 19563 19554 19552 19547 19545 19542 19541 19540 19539 19538 19537 19536 19535 19534 19532 19531 19530 19528 19527 19526 19525 19523 19518 19517 19515 19514 19512 19511 19510 19509 19508 19505 19504 19502 19501 19500 19499 19498 19497 19494 19493 19492 19490 19489 19486 19485 19484 19483 19482 19481 19479 19478 19477 19476 19475 19474 19471 19469 19467 19466 19465 19464 19463 19462 19461 19458 19457 19456 19455 19454 19453 19452 19451 19449 19448 19447 19446 19444 19441 19440 19438 19437 19436 19434 19431 19429 19428 19427 19426 19424 19423 19421 19419 19418 19417 19416 19415 19414 19413 19412 19410 19409 19407 19403 19402 19401 19400 19397 19394 19392 19391 19390 19389 19388 19385 19382 19380 19379 19378 19377 19376 19375 19374 19373 19372 19370 19369 19368 19367 19366 19364 19363 19362 19359 19358 19357 19356 19355 19354 19353 19352 19350 19349 19348 19346 19345 19343 19342 19341 19340 19338 19330 19329 19328 19326 19325 19323 19321 19320 19319 19318 19317 19316 19315 19312 19310 19309 19308 19306 19305 19304 19300 19298 19296 19295 19294 19293 19292 19291 19290 19288 19286 19285 19284 19281 19280 19279 19278 19277 19276 19275 19274 19273 19272 19270 19268 19267 19266 19265 19264 19257 19255 19254 19253 19252 19248 19247 19246 19245 19242 19241 19240 19238 19237 19234 19232 19231 19229 19228 19226 19225 19224 19222 19220 19219 19218 19215 19212 19211 19210 19208 19207 19205 19204 19203 19200 19199 19198 19197 19195 19194 19192 19191 19190 19188 19186 19185 19184 19183 19182 19178 19176 19175 19172 19171 19168 19165 19164 19163 19162 19160 19159 19158 19157 19156 19155 19154 19153 19152 19151 19148 19146 19145 19143 19140 19139 19138 19137 19134 19133 19132 19130 19129 19125 19124 19123 19121 19120 19118 19117 19116 19115 19114 19113 19110 19105 19104 19102 19101 19100 19099 19098 19097 19096 19095 19093 19092 19090 19086 19082 19080 19077 19076 19075 19074 19073 19071 19070 19067 19064 19063 19058 19057 19056 19053 19051 19048 19047 19045 19042 19041 19040 19037 19035 19034 19033 19032 19031 19030 19029 19028 19027 19026 19022 19021 19020 19018 19016 19015 19011 19009 19005 19004 19003 19000 18999 18998 18997 18995 18993 18992 18989 18988 18987 18986 18985 18984 18982 18979 18978 18977 18975 18972 18971 18970 18969 18968 18966 18963 18961 18959 18958 18957 18955 18954 18952 18951 18950 18949 18948 18947 18945 18943 18942 18941 18939 18937 18936 18935 18934 18933 18932 18930 18927 18926 18925 18924 18923 18922 18921 18920 18915 18914 18913 18911 18910 18909 18908 18907 18906 18904 18903 18897 18896 18893 18892 18891 18890 18889 18887 18886 18884 18880 18879 18878 18876 18875 18874 18873 18872 18871 18870 18869 18868 18867 18866 18865 18864 18860 18859 18856 18855 18854 18852 18851 18849 18848 18847 18845 18844 18843 18842 18841 18838 18835 18834 18833 18831 18830 18829 18828 18825 18824 18821 18818 18815 18813 18812 18810 18809 18807 18806 18805 18804 18802 18801 18800 18799 18797 18796 18795 18794 18793 18792 18790 18789 18788 18787 18785 18784 18783 18782 18780 18779 18777 18776 18775 18774 18773 18769 18766 18765 18763 18762 18761 18760 18759 18758 18757 18756 18755 18754 18751 18750 18749 18748 18747 18745 18744 18743 18741 18740 18739 18737 18735 18734 18733 18732 18731 18728 18727 18723 18722 18721 18717 18716 18713 18712 18711 18709 18708 18707 18706 18705 18704 18702 18701 18700 18696 18694 18690 18689 18688 18686 18685 18684 18683 18682 18680 18676 18675 18674 18673 18671 18669 18668 18667 18666 18665 18663 18662 18661 18656 18655 18653 18652 18651 18650 18648 18646 18645 18642 18640 18639 18638 18637 18636 18635 18633 18632 18631 18630 18629 18628 18627 18626 18624 18623 18622 18619 18616 18614 18613 18612 18611 18610 18608 18607 18606 18605 18604 18603 18601 18595 18594 18591 18588 18587 18585 18584 18583 18582 18581 18580 18579 18578 18574 18572 18571 18570 18566 18565 18564 18560 18557 18555 18554 18552 18551 18549 18548 18547 18545 18543 18542 18540 18539 18538 18537 18536 18534 18533 18532 18531 18530 18528 18527 18526 18525 18524 18523 18522 18521 18519 18518 18514 18513 18512 18510 18508 18507 18506 18505 18504 18502 18500 18499 18498 18497 18496 18494 18493 18492 18491 18489 18488 18487 18486 18485 18484 18483 18482 18481 18480 18479 18478 18477 18476 18475 18474 18473 18471 18470 18468 18466 18465 18463 18462 18457 18456 18452 18451 18450 18449 18447 18443 18442 18441 18439 18438 18437 18436 18435 18432 18431 18430 18429 18428 18427 18423 18419 18417 18416 18412 18409 18408 18407 18405 18403 18402 18401 18400 18398 18397 18396 18395 18394 18393 18392 18390 18389 18387 18386 18385 18384 18383 18381 18380 18378 18377 18376 18375 18372 18369 18368 18367 18362 18361 18359 18358 18355 18354 18353 18352 18351 18350 18349 18346 18344 18342 18341 18340 18339 18336 18333 18331 18330 18329 18328 18327 18326 18325 18322 18321 18320 18319 18318 18316 18315 18314 18312 18311 18309 18307 18305 18304 18303 18302 18301 18299 18298 18296 18295 18294 18293 18292 18291 18290 18289 18287 18286 18285 18283 18281 18280 18279 18278 18276 18274 18273 18271 18266 18265 18264 18262 18258 18257 18255 18254 18252 18250 18249 18247 18246 18245 18244 18242 18241 18239 18238 18237 18236 18235 18234 18230 18229 18228 18226 18225 18224 18223 18220 18218 18216 18215 18214 18210 18209 18208 18207 18206 18205 18204 18201 18200 18199 18197 18196 18195 18194 18192 18191 18190 18189 18188 18187 18185 18184 18183 18182 18181 18180 18179 18178 18177 18174 18173 18172 18170 18166 18165 18164 18162 18161 18157 18153 18152 18151 18150 18149 18148 18147 18146 18145 18143 18142 18141 18140 18138 18137 18136 18135 18133 18132 18131 18130 18129 18128 18127 18125 18124 18122 18121 18120 18117 18115 18113 18112 18111 18110 18109 18107 18102 18100 18097 18095 18094 18093 18092 18091 18090 18088 18085 18084 18082 18081 18080 18079 18077 18076 18075 18074 18072 18069 18068 18066 18065 18064 18063 18062 18061 18059 18058 18057 18056 18055 18054 18053 18052 18051 18050 18049 18048 18047 18046 18044 18043 18041 18039 18038 18037 18036 18035 18033 18032 18030 18029 18028 18027 18026 18024 18023 18022 18021 18020 18019 18018 18017 18014 18010 18009 18008 18005 18002 18001 18000 17999 17997 17996 17995 17993 17989 17986 17985 17983 17982 17981 17980 17978 17977 17976 17975 17974 17973 17972 17971 17970 17969 17965 17964 17961 17960 17959 17956 17955 17954 17951 17950 17948 17947 17946 17945 17943 17942 17941 17939 17937 17935 17932 17930 17925 17924 17923 17922 17920 17917 17916 17915 17914 17912 17911 17910 17909 17908 17905 17903 17901 17899 17898 17897 17894 17893 17892 17891 17890 17888 17886 17885 17884 17881 17878 17877 17876 17875 17874 17873 17872 17871 17864 17863 17862 17861 17860 17859 17858 17856 17855 17854 17853 17852 17851 17850 17847 17845 17844 17843 17841 17840 17839 17838 17837 17836 17835 17833 17832 17831 17830 17829 17828 17827 17826 17825 17823 17822 17821 17820 17818 17816 17815 17814 17807 17805 17804 17803 17799 17798 17796 17793 17792 17791 17790 17789 17788 17787 17783 17782 17780 17777 17774 17771 17770 17769 17767 17766 17762 17761 17760 17759 17756 17755 17751 17750 17745 17742 17741 17740 17738 17737 17736 17735 17734 17733 17732 17731 17730 17729 17728 17726 17725 17724 17723 17722 17720 17717 17716 17713 17712 17711 17710 17709 17708 17707 17706 17704 17702 17701 17700 17699 17698 17697 17696 17695 17694 17692 17691 17690 17685 17684 17683 17682 17681 17677 17675 17674 17673 17672 17670 17669 17668 17667 17665 17664 17663 17662 17661 17660 17659 17658 17655 17654 17651 17650 17649 17648 17647 17646 17645 17644 17643 17640 17639 17638 17637 17635 17634 17632 17631 17630 17629 17628 17627 17626 17625 17624 17623 17622 17619 17618 17617 17616 17615 17613 17612 17611 17610 17609 17608 17607 17606 17604 17602 17601 17599 17597 17596 17593 17592 17590 17589 17588 17587 17586 17585 17584 17583 17582 17581 17580 17579 17578 17576 17575 17574 17573 17572 17571 17570 17569 17568 17567 17566 17564 17562 17559 17558 17557 17556 17555 17552 17551 17548 17547 17545 17544 17543 17541 17540 17539 17538 17537 17536 17533 17530 17529 17526 17525 17524 17523 17522 17516 17512 17511 17510 17509 17507 17505 17503 17502 17501 17500 17499 17498 17497 17495 17493 17492 17489 17488 17486 17485 17484 17483 17482 17481 17480 17479 17478 17477 17475 17473 17471 17469 17468 17465 17464 17462 17461 17459 17458 17457 17455 17454 17453 17451 17450 17449 17448 17447 17446 17441 17440 17439 17438 17437 17436 17435 17434 17431 17430 17428 17427 17426 17425 17424 17422 17420 17418 17417 17414 17413 17412 17409 17407 17406 17405 17404 17403 17402 17401 17400 17398 17397 17394 17393 17392 17391 17390 17387 17386 17384 17382 17381 17380 17379 17378 17377 17375 17372 17371 17370 17367 17364 17362 17360 17359 17357 17356 17355 17354 17352 17351 17347 17346 17345 17344 17342 17340 17339 17338 17337 17336 17335 17334 17333 17332 17331 17330 17329 17328 17327 17326 17323 17322 17320 17319 17318 17314 17313 17312 17311 17309 17308 17304 17302 17300 17299 17298 17296 17293 17291 17290 17286 17285 17281 17279 17278 17277 17276 17275 17273 17272 17268 17267 17266 17265 17264 17263 17260 17258 17257 17256 17255 17253 17252 17251 17250 17247 17245 17244 17243 17242 17240 17237 17236 17235 17234 17233 17232 17231 17230 17228 17227 17226 17225 17224 17223 17222 17221 17220 17219 17216 17215 17213 17211 17210 17209 17207 17205 17204 17203 17202 17201 17200 17199 17196 17195 17193 17192 17191 17190 17189 17188 17187 17185 17184 17183 17178 17176 17173 17172 17170 17169 17167 17166 17165 17163 17161 17160 17159 17158 17157 17156 17155 17153 17151 17149 17147 17146 17145 17144 17143 17142 17141 17140 17139 17137 17136 17134 17132 17131 17130 17129 17128 17127 17126 17124 17123 17122 17121 17119 17118 17115 17114 17112 17110 17109 17107 17106 17105 17104 17103 17102 17100 17099 17097 17090 17089 17088 17087 17084 17081 17080 17077 17076 17074 17071 17069 17066 17064 17062 17061 17060 17059 17058 17055 17054 17052 17051 17050 17049 17048 17046 17045 17044 17043 17042 17041 17040 17039 17038 17036 17034 17033 17031 17030 17029 17028 17027 17026 17024 17023 17022 17019 17017 17015 17013 17012 17011 17010 17009 17006 17005 17002 16998 16997 16996 16995 16994 16993 16990 16989 16986 16984 16983 16982 16981 16980 16979 16978 16977 16975 16974 16972 16971 16970 16969 16968 16967 16966 16964 16963 16962 16959 16957 16956 16955 16954 16953 16952 16951 16950 16949 16948 16947 16946 16945 16944 16940 16939 16938 16937 16936 16935 16932 16931 16930 16929 16928 16927 16926 16925 16923 16922 16918 16917 16916 16914 16911 16910 16909 16908 16907 16906 16905 16903 16902 16901 16899 16898 16897 16896 16895 16893 16892 16891 16890 16889 16888 16887 16886 16885 16884 16883 16881 16880 16879 16878 16876 16875 16872 16870 16869 16868 16865 16864 16863 16862 16860 16858 16852 16851 16850 16848 16847 16845 16844 16842 16841 16840 16839 16837 16836 16834 16833 16832 16831 16828 16826 16825 16823 16819 16818 16812 16811 16809 16808 16807 16806 16805 16802 16801 16800 16799 16798 16796 16795 16793 16792 16791 16790 16789 16788 16787 16785 16782 16781 16780 16779 16778 16776 16775 16774 16773 16772 16770 16769 16768 16764 16763 16761 16760 16759 16758 16757 16756 16755 16754 16753 16752 16747 16746 16745 16742 16740 16739 16737 16736 16735 16734 16732 16731 16730 16728 16727 16726 16725 16723 16722 16721 16719 16718 16715 16713 16712 16711 16710 16709 16708 16707 16706 16705 16704 16703 16701 16699 16698 16697 16695 16694 16693 16692 16691 16689 16688 16687 16686 16685 16684 16682 16680 16678 16677 16676 16675 16674 16672 16671 16670 16668 16667 16666 16665 16662 16661 16660 16659 16655 16654 16653 16651 16649 16647 16645 16643 16642 16641 16640 16639 16636 16633 16632 16631 16630 16629 16628 16627 16626 16624 16623 16621 16620 16619 16618 16617 16616 16613 16612 16611 16610 16608 16607 16605 16604 16603 16600 16598 16596 16594 16593 16591 16589 16588 16587 16586 16585 16580 16579 16576 16574 16573 16572 16568 16567 16566 16565 16564 16562 16561 16560 16559 16557 16556 16554 16553 16551 16549 16548 16547 16546 16545 16544 16543 16542 16541 16540 16538 16537 16536 16534 16533 16532 16531 16529 16527 16526 16525 16524 16521 16520 16519 16518 16517 16515 16514 16513 16512 16511 16510 16509 16508 16507 16506 16503 16502 16501 16500 16498 16497 16496 16495 16494 16493 16490 16488 16487 16486 16484 16482 16480 16478 16474 16473 16472 16471 16470 16469 16468 16466 16465 16462 16461 16460 16459 16457 16455 16453 16451 16450 16448 16447 16446 16445 16443 16442 16441 16439 16438 16437 16436 16435 16433 16432 16430 16429 16428 16427 16426 16425 16424 16422 16421 16420 16419 16417 16414 16413 16412 16410 16409 16407 16405 16401 16400 16397 16394 16393 16392 16391 16390 16387 16386 16385 16384 16383 16381 16380 16379 16377 16376 16374 16373 16372 16370 16369 16368 16367 16366 16364 16361 16360 16359 16358 16357 16356 16355 16354 16353 16348 16344 16342 16341 16340 16338 16337 16335 16333 16331 16330 16329 16327 16326 16323 16321 16319 16318 16317 16314 16313 16311 16310 16308 16306 16305 16304 16303 16302 16300 16298 16297 16296 16293 16289 16288 16287 16285 16282 16279 16276 16275 16273 16271 16270 16269 16266 16265 16262 16261 16259 16258 16257 16256 16255 16254 16252 16251 16250 16249 16248 16247 16246 16245 16243 16242 16241 16240 16238 16236 16235 16234 16233 16232 16231 16230 16229 16226 16225 16224 16223 16222 16221 16219 16218 16217 16215 16214 16213 16211 16210 16208 16207 16205 16203 16200 16199 16197 16196 16195 16194 16193 16192 16191 16190 16189 16188 16186 16185 16184 16183 16180 16179 16178 16177 16174 16173 16171 16170 16167 16166 16164 16163 16161 16157 16155 16154 16153 16152 16150 16148 16147 16146 16145 16144 16143 16140 16139 16138 16137 16136 16133 16132 16131 16129 16127 16126 16125 16121 16119 16117 16115 16114 16113 16112 16108 16107 16106 16105 16104 16103 16102 16101 16099 16097 16096 16094 16092 16091 16090 16089 16088 16087 16086 16084 16083 16082 16081 16079 16078 16073 16072 16071 16070 16069 16066 16064 16059 16055 16054 16053 16052 16049 16047 16045 16043 16042 16041 16040 16039 16038 16036 16035 16034 16032 16031 16030 16029 16028 16027 16026 16022 16021 16020 16019 16017 16016 16015 16014 16013 16012 16009 16007 16006 16005 16003 16002 16000 15999 15998 15997 15996 15995 15994 15993 15992 15990 15988 15986 15983 15982 15981 15980 15979 15978 15973 15972 15967 15966 15964 15960 15959 15958 15957 15956 15955 15954 15953 15952 15951 15950 15949 15946 15944 15943 15941 15940 15939 15938 15935 15931 15927 15924 15923 15922 15921 15920 15919 15917 15916 15914 15913 15910 15909 15908 15907 15905 15904 15903 15902 15900 15896 15893 15892 15891 15888 15887 15886 15885 15881 15880 15879 15877 15876 15874 15872 15869 15867 15866 15864 15863 15859 15858 15856 15855 15854 15853 15851 15848 15847 15846 15844 15843 15842 15839 15836 15834 15833 15832 15831 15830 15829 15827 15826 15824 15823 15821 15820 15818 15816 15815 15814 15813 15812 15811 15810 15809 15808 15807 15805 15804 15803 15801 15800 15798 15797 15796 15795 15793 15792 15790 15789 15788 15787 15785 15784 15782 15781 15780 15779 15778 15776 15775 15773 15772 15771 15769 15767 15765 15764 15763 15762 15761 15760 15758 15757 15756 15755 15754 15753 15751 15750 15747 15746 15739 15738 15737 15735 15733 15732 15731 15727 15726 15725 15724 15722 15720 15719 15717 15714 15713 15712 15710 15708 15705 15704 15703 15702 15701 15700 15699 15698 15697 15696 15694 15692 15689 15688 15686 15684 15682 15681 15678 15676 15673 15672 15671 15670 15669 15668 15667 15665 15664 15662 15661 15660 15658 15657 15656 15655 15654 15653 15652 15651 15648 15647 15646 15643 15641 15640 15639 15637 15635 15633 15631 15630 15628 15627 15626 15619 15618 15615 15613 15612 15611 15608 15606 15605 15604 15603 15602 15600 15599 15598 15597 15596 15594 15593 15592 15591 15590 15589 15586 15584 15583 15582 15580 15579 15578 15576 15575 15574 15573 15572 15571 15568 15567 15565 15564 15563 15560 15559 15558 15557 15555 15554 15552 15551 15549 15548 15547 15544 15543 15541 15540 15538 15537 15535 15534 15533 15532 15531 15529 15527 15526 15524 15523 15522 15521 15520 15516 15515 15514 15513 15512 15510 15508 15507 15506 15505 15504 15503 15502 15500 15497 15496 15493 15490 15489 15485 15483 15482 15480 15478 15475 15474 15473 15471 15469 15467 15464 15463 15462 15461 15460 15459 15456 15455 15454 15453 15452 15451 15450 15448 15446 15444 15443 15442 15441 15440 15439 15437 15436 15434 15432 15431 15428 15427 15425 15424 15422 15421 15418 15417 15414 15413 15412 15408 15404 15403 15402 15401 15400 15399 15398 15397 15396 15395 15394 15390 15389 15388 15385 15384 15383 15382 15380 15378 15377 15376 15375 15369 15368 15367 15366 15365 15364 15363 15361 15360 15359 15357 15356 15355 15354 15353 15351 15350 15349 15346 15345 15344 15343 15342 15339 15338 15337 15336 15335 15334 15333 15332 15331 15330 15329 15328 15327 15326 15325 15324 15323 15321 15320 15319 15318 15317 15316 15314 15313 15312 15311 15310 15309 15308 15307 15306 15305 15304 15303 15302 15301 15300 15298 15297 15295 15294 15293 15292 15291 15289 15288 15286 15284 15283 15282 15281 15280 15279 15278 15276 15275 15273 15272 15269 15268 15267 15266 15264 15263 15261 15259 15257 15256 15255 15254 15253 15252 15251 15250 15249 15246 15245 15244 15242 15241 15240 15239 15237 15234 15229 15225 15224 15221 15220 15219 15217 15215 15213 15212 15211 15206 15204 15203 15202 15201 15200 15199 15197 15195 15192 15190 15189 15187 15186 15184 15181 15180 15179 15178 15176 15175 15174 15173 15172 15171 15170 15169 15168 15166 15165 15163 15162 15161 15160 15159 15158 15157 15155 15154 15152 15149 15148 15147 15146 15142 15141 15140 15138 15137 15135 15134 15133 15132 15131 15130 15127 15124 15123 15122 15119 15117 15115 15114 15112 15111 15109 15107 15106 15105 15102 15101 15100 15099 15098 15097 15096 15095 15094 15093 15092 15090 15089 15087 15086 15085 15084 15083 15082 15081 15080 15079 15078 15077 15076 15074 15073 15072 15071 15070 15069 15068 15067 15064 15063 15062 15061 15060 15059 15058 15057 15056 15055 15054 15049 15048 15047 15046 15045 15044 15043 15041 15040 15039 15038 15036 15032 15029 15026 15025 15024 15020 15018 15017 15016 15015 15014 15013 15011 15010 15009 15008 15006 15003 15002 15001 15000 14999 14997 14994 14992 14989 14986 14985 14983 14982 14981 14979 14977 14975 14974 14970 14969 14968 14967 14966 14965 14963 14960 14959 14958 14957 14956 14953 14952 14950 14949 14948 14946 14945 14943 14940 14938 14935 14934 14933 14932 14931 14930 14929 14928 14927 14925 14922 14919 14918 14917 14916 14915 14914 14913 14909 14908 14907 14904 14902 14901 14899 14898 14896 14895 14894 14893 14892 14889 14888 14886 14885 14883 14880 14879 14878 14877 14876 14875 14870 14866 14863 14861 14858 14857 14856 14855 14852 14848 14847 14846 14841 14839 14838 14837 14836 14835 14834 14832 14831 14830 14829 14828 14827 14824 14820 14819 14818 14816 14814 14813 14812 14811 14810 14808 14807 14806 14805 14803 14802 14798 14797 14796 14795 14792 14790 14789 14788 14787 14784 14783 14782 14781 14780 14779 14777 14774 14773 14772 14771 14769 14768 14767 14766 14765 14764 14763 14762 14760 14759 14758 14757 14756 14755 14753 14750 14749 14746 14744 14743 14742 14741 14739 14738 14737 14736 14735 14734 14733 14730 14729 14728 14726 14725 14724 14723 14720 14719 14717 14716 14715 14714 14713 14712 14710 14707 14706 14705 14703 14702 14695 14694 14693 14692 14691 14688 14687 14686 14685 14684 14683 14681 14677 14676 14675 14673 14671 14670 14668 14665 14664 14663 14662 14661 14660 14659 14658 14656 14655 14654 14653 14651 14647 14646 14645 14643 14642 14641 14640 14639 14638 14635 14634 14633 14632 14629 14627 14626 14625 14624 14623 14621 14620 14619 14618 14617 14616 14615 14614 14612 14610 14609 14608 14605 14601 14600 14599 14598 14594 14593 14592 14591 14590 14589 14588 14587 14586 14585 14584 14581 14580 14579 14577 14576 14575 14574 14573 14572 14571 14570 14568 14567 14566 14565 14564 14562 14561 14560 14558 14557 14556 14554 14553 14552 14551 14550 14549 14547 14545 14544 14542 14540 14538 14535 14534 14533 14532 14531 14530 14529 14527 14526 14523 14520 14518 14517 14516 14515 14513 14512 14511 14509 14508 14506 14505 14504 14503 14502 14501 14498 14497 14496 14495 14494 14493 14491 14490 14489 14488 14487 14486 14483 14482 14481 14480 14479 14478 14477 14475 14474 14471 14470 14469 14467 14463 14462 14461 14460 14458 14457 14455 14454 14452 14451 14450 14448 14447 14446 14445 14442 14441 14440 14439 14438 14437 14435 14432 14429 14428 14427 14426 14425 14424 14423 14421 14420 14418 14417 14415 14413 14412 14411 14410 14408 14405 14404 14403 14402 14401 14400 14399 14398 14396 14395 14394 14393 14392 14391 14390 14389 14388 14386 14385 14384 14383 14382 14381 14380 14379 14377 14376 14374 14373 14372 14370 14365 14364 14363 14362 14361 14360 14358 14357 14355 14354 14352 14349 14348 14347 14346 14345 14343 14342 14341 14340 14339 14338 14337 14335 14334 14332 14327 14326 14323 14322 14321 14319 14316 14315 14314 14311 14308 14307 14304 14303 14302 14301 14300 14299 14293 14292 14290 14289 14285 14284 14283 14280 14278 14277 14276 14275 14271 14269 14268 14266 14265 14264 14262 14260 14259 14258 14257 14255 14254 14253 14252 14250 14249 14244 14242 14240 14238 14237 14236 14234 14233 14230 14229 14228 14227 14224 14223 14221 14217 14216 14214 14213 14212 14211 14209 14208 14207 14205 14203 14202 14199 14198 14197 14196 14195 14194 14193 14189 14186 14183 14182 14179 14178 14177 14170 14168 14167 14166 14164 14163 14162 14161 14160 14158 14157 14156 14154 14153 14152 14151 14148 14147 14146 14144 14143 14142 14141 14139 14137 14135 14134 14133 14132 14131 14126 14124 14123 14122 14121 14120 14119 14115 14114 14113 14112 14111 14107 14100 14099 14098 14095 14094 14092 14091 14089 14087 14086 14084 14083 14081 14079 14075 14074 14072 14071 14070 14069 14068 14066 14065 14064 14063 14062 14061 14059 14058 14057 14054 14053 14051 14049 14047 14046 14045 14043 14040 14039 14038 14037 14035 14033 14031 14030 14028 14024 14023 14020 14018 14016 14015 14014 14013 14012 14011 14007 14005 14004 14002 14001 13997 13996 13994 13992 13991 13990 13989 13988 13987 13986 13985 13984 13983 13982 13979 13978 13977 13976 13974 13973 13972 13971 13970 13969 13968 13967 13963 13961 13959 13958 13956 13955 13954 13952 13950 13949 13945 13944 13943 13942 13940 13939 13937 13936 13935 13934 13932 13931 13929 13928 13927 13926 13925 13923 13920 13916 13915 13913 13910 13909 13908 13907 13904 13902 13901 13895 13894 13893 13892 13891 13889 13888 13887 13885 13882 13881 13880 13879 13878 13876 13874 13873 13872 13869 13868 13867 13864 13862 13861 13859 13858 13857 13856 13855 13853 13852 13851 13850 13849 13847 13846 13845 13844 13843 13842 13841 13840 13838 13836 13834 13833 13831 13829 13828 13827 13826 13824 13823 13822 13821 13820 13818 13816 13813 13812 13810 13808 13807 13806 13804 13803 13802 13799 13797 13796 13795 13793 13792 13789 13788 13787 13785 13783 13782 13781 13780 13778 13777 13775 13770 13769 13767 13766 13765 13764 13763 13761 13759 13758 13756 13755 13754 13753 13750 13748 13747 13746 13745 13743 13742 13741 13738 13737 13736 13735 13734 13733 13732 13731 13729 13726 13724 13723 13719 13718 13717 13715 13714 13711 13710 13709 13708 13705 13699 13698 13697 13696 13695 13693 13692 13691 13690 13686 13684 13683 13682 13680 13679 13678 13677 13675 13674 13673 13672 13671 13670 13669 13668 13667 13666 13664 13660 13656 13655 13654 13653 13651 13650 13649 13648 13647 13645 13643 13642 13640 13639 13638 13637 13636 13634 13633 13631 13626 13625 13624 13623 13621 13620 13619 13618 13616 13615 13614 13613 13612 13611 13609 13608 13607 13605 13604 13602 13600 13599 13597 13594 13593 13591 13590 13588 13587 13586 13585 13584 13581 13580 13579 13577 13576 13575 13571 13569 13568 13567 13566 13564 13563 13561 13560 13559 13558 13555 13554 13553 13550 13548 13545 13544 13542 13541 13540 13539 13538 13532 13531 13530 13527 13526 13525 13524 13523 13522 13520 13519 13518 13516 13515 13514 13513 13511 13510 13509 13508 13505 13504 13502 13501 13500 13499 13498 13496 13495 13494 13493 13492 13491 13490 13489 13487 13486 13485 13483 13478 13477 13476 13475 13471 13470 13469 13467 13466 13463 13460 13457 13455 13454 13453 13452 13451 13450 13449 13446 13445 13443 13442 13441 13439 13438 13437 13435 13434 13433 13432 13431 13430 13428 13427 13426 13425 13423 13422 13419 13418 13417 13416 13415 13412 13410 13407 13405 13404 13403 13402 13401 13400 13399 13398 13397 13396 13394 13391 13390 13389 13388 13387 13384 13383 13380 13378 13377 13376 13373 13372 13371 13369 13367 13366 13365 13364 13361 13360 13359 13358 13355 13353 13352 13351 13350 13349 13348 13347 13346 13345 13344 13343 13342 13341 13340 13339 13337 13336 13335 13333 13332 13329 13328 13327 13326 13325 13324 13323 13319 13318 13316 13315 13313 13311 13309 13308 13307 13306 13305 13304 13303 13301 13300 13298 13295 13294 13293 13292 13291 13290 13288 13287 13286 13285 13284 13283 13282 13279 13278 13277 13275 13274 13273 13272 13271 13269 13268 13267 13266 13265 13264 13263 13262 13261 13260 13259 13258 13257 13254 13253 13251 13248 13247 13246 13245 13244 13242 13241 13240 13239 13235 13233 13231 13230 13227 13224 13223 13222 13221 13219 13217 13216 13214 13212 13210 13208 13207 13205 13204 13203 13201 13200 13198 13197 13196 13195 13194 13191 13189 13188 13187 13186 13185 13184 13183 13182 13181 13180 13179 13178 13177 13176 13175 13174 13173 13172 13171 13168 13167 13166 13164 13163 13162 13160 13159 13158 13157 13156 13155 13154 13153 13152 13150 13148 13147 13146 13144 13142 13141 13140 13139 13138 13136 13135 13133 13132 13131 13130 13126 13125 13124 13123 13121 13120 13117 13112 13111 13110 13109 13107 13106 13105 13103 13102 13101 13100 13099 13097 13094 13091 13090 13088 13087 13086 13084 13083 13082 13081 13080 13079 13078 13077 13073 13071 13070 13069 13068 13066 13063 13062 13061 13060 13059 13058 13057 13055 13053 13051 13050 13049 13048 13047 13046 13045 13044 13043 13042 13040 13039 13037 13036 13035 13033 13032 13031 13029 13027 13025 13024 13023 13021 13019 13018 13015 13013 13011 13008 13007 13006 13001 13000 12997 12996 12994 12993 12992 12991 12990 12986 12985 12984 12983 12981 12979 12976 12974 12973 12972 12971 12968 12966 12963 12961 12960 12956 12955 12954 12952 12950 12947 12946 12945 12944 12942 12941 12940 12939 12938 12937 12935 12934 12932 12931 12930 12927 12926 12925 12923 12920 12919 12918 12916 12915 12914 12913 12912 12911 12906 12904 12903 12901 12900 12899 12898 12895 12894 12893 12892 12890 12887 12885 12883 12882 12879 12878 12873 12871 12867 12866 12864 12857 12856 12855 12852 12850 12849 12848 12847 12846 12845 12842 12841 12840 12839 12837 12835 12834 12833 12831 12830 12829 12828 12825 12824 12823 12822 12821 12818 12816 12814 12813 12812 12809 12804 12803 12802 12801 12800 12799 12798 12796 12795 12794 12793 12792 12788 12787 12785 12784 12783 12782 12780 12779 12778 12776 12775 12774 12771 12770 12769 12768 12767 12766 12765 12764 12760 12759 12758 12757 12756 12749 12747 12745 12744 12743 12740 12739 12736 12735 12731 12730 12727 12724 12723 12721 12719 12716 12715 12713 12712 12711 12705 12701 12700 12697 12696 12694 12693 12689 12686 12685 12683 12682 12681 12680 12679 12677 12676 12675 12674 12673 12670 12669 12667 12665 12664 12662 12661 12659 12658 12654 12652 12651 12650 12649 12647 12646 12645 12644 12641 12640 12639 12637 12636 12635 12634 12632 12629 12628 12626 12625 12624 12623 12622 12621 12619 12618 12616 12613 12612 12611 12610 12607 12605 12602 12600 12599 12598 12595 12593 12592 12590 12587 12586 12585 12584 12583 12582 12581 12580 12579 12577 12576 12574 12573 12572 12571 12570 12569 12568 12567 12566 12565 12564 12563 12561 12558 12557 12556 12555 12554 12553 12552 12551 12548 12547 12546 12545 12544 12543 12541 12539 12538 12536 12535 12534 12532 12531 12528 12526 12525 12524 12523 12522 12521 12519 12518 12515 12513 12511 12510 12509 12506 12505 12503 12502 12501 12500 12499 12497 12495 12494 12493 12492 12490 12487 12486 12485 12484 12482 12481 12480 12479 12478 12476 12474 12472 12466 12465 12463 12462 12460 12459 12458 12457 12455 12453 12451 12450 12449 12448 12446 12445 12443 12442 12441 12440 12439 12438 12437 12432 12431 12430 12429 12428 12427 12424 12421 12420 12419 12418 12416 12415 12414 12411 12410 12409 12408 12407 12406 12405 12404 12403 12402 12399 12393 12392 12390 12389 12388 12387 12386 12385 12384 12382 12381 12379 12378 12377 12376 12375 12374 12373 12371 12370 12369 12368 12367 12366 12363 12361 12359 12358 12357 12352 12351 12350 12349 12348 12347 12346 12345 12343 12341 12338 12337 12335 12333 12332 12331 12330 12329 12326 12324 12321 12320 12319 12318 12317 12316 12315 12314 12313 12312 12311 12309 12308 12306 12305 12304 12303 12302 12300 12297 12296 12294 12293 12291 12289 12288 12286 12285 12283 12282 12281 12280 12279 12278 12275 12273 12272 12271 12270 12268 12264 12263 12262 12261 12257 12255 12254 12253 12248 12246 12245 12244 12243 12241 12238 12237 12235 12234 12233 12231 12229 12227 12226 12225 12224 12223 12222 12221 12220 12219 12218 12217 12216 12215 12214 12212 12211 12210 12209 12207 12206 12202 12201 12200 12199 12198 12197 12196 12195 12194 12193 12192 12191 12190 12189 12188 12187 12185 12184 12183 12182 12181 12179 12178 12177 12176 12174 12173 12171 12169 12168 12167 12166 12163 12161 12159 12158 12157 12156 12155 12154 12153 12150 12149 12148 12146 12144 12143 12142 12141 12139 12138 12135 12134 12133 12132 12131 12130 12129 12127 12125 12124 12123 12122 12120 12119 12117 12116 12115 12111 12110 12109 12108 12107 12106 12105 12104 12103 12102 12101 12100 12099 12098 12097 12095 12092 12090 12089 12086 12085 12083 12081 12079 12076 12075 12072 12070 12069 12066 12065 12064 12063 12061 12060 12059 12055 12054 12053 12052 12051 12048 12047 12046 12045 12042 12041 12039 12038 12037 12036 12035 12034 12032 12030 12028 12027 12026 12025 12024 12023 12022 12021 12020 12018 12017 12016 12015 12014 12012 12011 12009 12008 12007 12006 12004 12003 12002 12001 12000 11999 11998 11996 11993 11992 11990 11989 11988 11987 11986 11985 11984 11983 11982 11980 11979 11978 11977 11975 11972 11970 11969 11968 11967 11966 11965 11964 11962 11961 11960 11959 11958 11953 11951 11950 11948 11947 11946 11944 11943 11939 11938 11937 11934 11933 11931 11930 11928 11927 11925 11924 11920 11919 11918 11917 11915 11914 11911 11910 11908 11905 11904 11902 11901 11900 11898 11897 11896 11894 11893 11892 11890 11888 11887 11886 11885 11884 11883 11881 11880 11879 11878 11877 11876 11875 11874 11873 11872 11871 11870 11869 11867 11866 11865 11863 11862 11861 11860 11857 11855 11854 11850 11849 11847 11846 11845 11844 11843 11842 11841 11840 11838 11837 11836 11834 11833 11831 11830 11829 11828 11826 11823 11822 11821 11820 11819 11817 11816 11815 11814 11812 11811 11808 11807 11805 11804 11802 11800 11799 11797 11796 11795 11792 11791 11789 11787 11786 11785 11784 11781 11780 11779 11775 11774 11773 11770 11769 11768 11767 11766 11764 11762 11761 11759 11758 11757 11756 11754 11753 11751 11750 11749 11748 11747 11746 11744 11742 11738 11737 11736 11735 11731 11730 11729 11728 11727 11726 11725 11724 11722 11721 11715 11714 11713 11712 11711 11709 11708 11707 11706 11704 11702 11701 11700 11699 11698 11696 11695 11694 11693 11690 11689 11687 11686 11685 11684 11683 11682 11681 11680 11679 11677 11675 11674 11673 11671 11668 11667 11665 11664 11662 11660 11658 11656 11654 11653 11652 11649 11648 11645 11644 11643 11642 11641 11640 11639 11636 11635 11629 11628 11627 11626 11625 11624 11623 11621 11620 11619 11618 11617 11616 11615 11614 11612 11610 11608 11607 11606 11605 11603 11602 11601 11599 11596 11595 11594 11592 11591 11589 11588 11587 11586 11585 11582 11581 11580 11578 11577 11573 11572 11571 11570 11568 11567 11564 11563 11562 11560 11559 11557 11556 11554 11552 11551 11550 11545 11544 11543 11539 11538 11537 11535 11534 11533 11532 11527 11526 11523 11520 11519 11518 11514 11513 11512 11510 11509 11508 11507 11505 11504 11503 11501 11499 11498 11497 11496 11495 11493 11492 11490 11489 11488 11487 11483 11482 11481 11480 11479 11476 11475 11473 11472 11470 11469 11468 11467 11466 11465 11463 11462 11461 11460 11457 11456 11455 11454 11453 11450 11448 11447 11444 11443 11441 11437 11436 11435 11434 11432 11431 11430 11428 11427 11426 11424 11423 11420 11419 11418 11417 11416 11413 11412 11411 11410 11409 11408 11406 11404 11403 11402 11400 11398 11397 11396 11395 11394 11391 11390 11386 11385 11382 11381 11380 11379 11377 11375 11374 11373 11370 11369 11368 11366 11365 11364 11363 11362 11360 11359 11358 11357 11356 11355 11354 11353 11352 11350 11349 11348 11347 11346 11344 11342 11341 11340 11338 11337 11336 11334 11332 11331 11330 11329 11328 11327 11326 11324 11323 11322 11321 11320 11319 11318 11317 11316 11313 11312 11311 11308 11307 11306 11305 11304 11303 11302 11301 11300 11299 11298 11296 11295 11294 11293 11292 11291 11290 11288 11286 11284 11283 11282 11280 11279 11278 11277 11276 11275 11274 11273 11272 11271 11270 11268 11266 11265 11264 11263 11262 11260 11259 11256 11255 11254 11253 11250 11246 11243 11242 11241 11238 11237 11236 11235 11234 11231 11227 11226 11224 11223 11222 11221 11220 11219 11218 11217 11216 11210 11209 11208 11206 11205 11204 11203 11202 11200 11198 11197 11196 11195 11194 11193 11192 11191 11190 11189 11187 11186 11185 11184 11182 11181 11180 11178 11176 11173 11172 11171 11170 11169 11166 11165 11163 11162 11159 11157 11156 11155 11154 11153 11152 11151 11148 11147 11146 11143 11142 11139 11138 11137 11133 11132 11131 11130 11129 11128 11127 11123 11122 11119 11118 11117 11116 11115 11114 11113 11112 11110 11109 11105 11104 11102 11100 11097 11096 11094 11093 11092 11088 11087 11086 11085 11083 11082 11081 11079 11078 11072 11071 11070 11067 11066 11065 11064 11063 11062 11061 11060 11058 11057 11056 11055 11054 11053 11051 11050 11048 11046 11045 11043 11042 11041 11039 11037 11036 11035 11033 11032 11031 11028 11027 11024 11023 11022 11020 11018 11016 11015 11013 11012 11009 11007 11006 11005 11004 11003 11001 11000 10999 10997 10996 10993 10991 10989 10986 10984 10980 10979 10977 10972 10971 10969 10968 10966 10963 10962 10961 10959 10958 10957 10955 10954 10953 10951 10950 10949 10948 10946 10945 10943 10942 10941 10940 10938 10935 10934 10933 10932 10931 10930 10929 10928 10926 10925 10924 10923 10922 10921 10920 10919 10918 10917 10916 10914 10911 10909 10908 10905 10904 10903 10902 10901 10899 10894 10891 10889 10887 10886 10885 10883 10879 10878 10877 10876 10873 10870 10868 10866 10865 10864 10863 10862 10861 10859 10858 10857 10855 10853 10852 10850 10848 10847 10846 10844 10843 10842 10840 10838 10837 10836 10834 10833 10832 10831 10830 10829 10827 10825 10823 10822 10821 10819 10818 10817 10816 10814 10813 10810 10809 10807 10806 10805 10800 10799 10798 10796 10790 10789 10788 10787 10786 10785 10784 10782 10781 10780 10778 10777 10774 10772 10771 10768 10767 10766 10764 10763 10762 10761 10760 10759 10758 10756 10751 10750 10748 10746 10745 10743 10742 10741 10740 10739 10738 10736 10735 10734 10732 10731 10730 10728 10727 10726 10721 10719 10718 10717 10716 10715 10714 10712 10711 10710 10709 10708 10705 10704 10703 10702 10701 10700 10699 10698 10697 10696 10695 10694 10693 10692 10691 10690 10689 10688 10687 10686 10685 10684 10683 10682 10677 10676 10675 10674 10672 10670 10669 10668 10667 10666 10665 10664 10663 10662 10660 10656 10655 10654 10653 10652 10651 10650 10649 10648 10645 10644 10641 10640 10639 10637 10636 10634 10633 10631 10630 10629 10628 10627 10626 10623 10622 10620 10619 10616 10615 10614 10613 10612 10609 10607 10606 10604 10600 10599 10597 10595 10594 10589 10588 10587 10585 10584 10583 10582 10581 10580 10576 10574 10572 10571 10570 10569 10568 10566 10565 10564 10563 10561 10560 10559 10557 10556 10555 10554 10552 10551 10550 10548 10547 10546 10545 10543 10542 10541 10540 10537 10536 10534 10533 10531 10530 10528 10526 10525 10524 10523 10522 10521 10520 10519 10517 10516 10515 10514 10513 10511 10510 10509 10507 10506 10505 10504 10503 10502 10501 10500 10499 10498 10497 10496 10494 10493 10492 10491 10487 10485 10484 10483 10482 10480 10478 10476 10475 10472 10471 10470 10468 10467 10466 10465 10463 10461 10460 10459 10457 10456 10455 10454 10453 10452 10450 10449 10448 10445 10443 10442 10441 10440 10439 10437 10436 10435 10434 10433 10432 10431 10430 10429 10428 10425 10424 10422 10419 10418 10416 10415 10414 10413 10412 10410 10409 10407 10405 10403 10401 10400 10398 10396 10393 10392 10391 10390 10386 10385 10379 10375 10374 10372 10371 10370 10369 10367 10364 10363 10362 10361 10360 10359 10357 10356 10354 10353 10352 10351 10347 10345 10344 10343 10342 10340 10339 10336 10334 10332 10331 10330 10329 10326 10325 10324 10323 10322 10321 10320 10318 10317 10316 10315 10312 10311 10310 10309 10307 10304 10303 10302 10301 10300 10299 10297 10294 10293 10292 10291 10290 10289 10287 10285 10284 10283 10282 10280 10279 10278 10277 10273 10271 10268 10267 10266 10264 10263 10262 10261 10260 10257 10256 10255 10254 10252 10250 10249 10248 10247 10245 10244 10242 10239 10238 10236 10235 10233 10231 10230 10229 10228 10227 10226 10225 10223 10222 10220 10219 10218 10217 10215 10213 10212 10210 10208 10207 10205 10204 10203 10202 10201 10199 10198 10195 10194 10193 10192 10191 10190 10189 10188 10187 10184 10183 10182 10181 10179 10178 10176 10174 10173 10172 10169 10168 10167 10166 10164 10163 10162 10161 10157 10154 10152 10150 10147 10146 10145 10144 10142 10141 10140 10139 10138 10136 10135 10133 10132 10131 10130 10129 10126 10124 10122 10120 10118 10117 10116 10114 10112 10110 10107 10106 10105 10104 10102 10101 10100 10098 10097 10095 10094 10093 10092 10091 10090 10089 10087 10084 10083 10082 10081 10080 10078 10071 10066 10064 10063 10062 10061 10059 10056 10055 10053 10052 10051 10050 10047 10046 10044 10043 10041 10040 10039 10037 10036 10034 10033 10030 10028 10027 10022 10021 10020 10019 10015 10013 10012 10011 10010 10008 10006 10005 10002 10001 10000 9999 9998 9997 9996 9994 9993 9990 9989 9986 9985 9984 9983 9981 9980 9978 9977 9974 9973 9971 9970 9968 9967 9965 9964 9963 9962 9960 9959 9958 9957 9956 9955 9954 9952 9951 9950 9948 9947 9945 9944 9943 9942 9941 9940 9939 9936 9935 9933 9932 9931 9930 9924 9923 9922 9920 9919 9918 9915 9910 9909 9908 9907 9905 9904 9902 9901 9900 9898 9896 9894 9893 9892 9890 9888 9887 9886 9884 9883 9880 9878 9876 9875 9874 9872 9870 9869 9868 9866 9865 9864 9863 9862 9861 9860 9858 9857 9855 9854 9853 9852 9851 9850 9849 9848 9846 9842 9841 9837 9836 9835 9832 9831 9830 9827 9826 9824 9823 9821 9820 9819 9818 9817 9816 9815 9814 9813 9812 9811 9810 9809 9808 9806 9805 9804 9803 9802 9801 9800 9798 9797 9796 9794 9791 9788 9786 9785 9784 9782 9780 9778 9776 9775 9774 9773 9771 9770 9769 9768 9767 9765 9764 9763 9762 9761 9760 9759 9757 9756 9755 9754 9753 9752 9751 9750 9749 9748 9745 9744 9743 9740 9739 9735 9733 9732 9731 9730 9729 9727 9725 9724 9723 9722 9721 9720 9716 9714 9711 9710 9709 9708 9706 9705 9703 9702 9699 9698 9697 9694 9693 9692 9689 9688 9687 9686 9685 9683 9682 9681 9679 9677 9676 9675 9671 9670 9669 9668 9666 9665 9662 9661 9660 9659 9658 9653 9652 9651 9650 9649 9648 9646 9645 9644 9642 9640 9638 9637 9636 9634 9632 9630 9628 9627 9626 9625 9624 9623 9622 9620 9618 9616 9615 9614 9613 9611 9610 9609 9608 9607 9606 9605 9602 9601 9600 9599 9597 9593 9592 9591 9590 9589 9586 9585 9584 9583 9582 9581 9580 9578 9577 9576 9574 9573 9572 9571 9570 9569 9568 9567 9566 9565 9564 9563 9562 9559 9558 9557 9555 9554 9552 9550 9548 9547 9545 9543 9542 9541 9539 9538 9537 9536 9534 9533 9532 9531 9530 9529 9528 9526 9524 9523 9519 9518 9517 9515 9514 9513 9511 9509 9508 9507 9505 9504 9503 9502 9499 9498 9497 9496 9495 9494 9493 9490 9488 9487 9485 9482 9481 9480 9479 9477 9476 9471 9470 9466 9465 9464 9463 9462 9460 9459 9458 9457 9456 9455 9454 9453 9452 9451 9450 9449 9447 9446 9445 9443 9441 9439 9438 9437 9436 9434 9433 9432 9431 9429 9427 9426 9424 9423 9422 9421 9420 9418 9416 9415 9414 9413 9412 9411 9410 9408 9407 9406 9405 9403 9402 9401 9399 9398 9395 9394 9393 9392 9391 9390 9389 9386 9383 9382 9380 9378 9377 9376 9375 9372 9371 9370 9369 9368 9367 9366 9365 9363 9362 9361 9356 9355 9354 9352 9350 9349 9348 9347 9346 9345 9344 9343 9342 9341 9340 9339 9338 9337 9336 9335 9333 9331 9330 9329 9328 9327 9325 9323 9321 9320 9319 9318 9314 9310 9309 9308 9307 9306 9304 9301 9300 9298 9297 9295 9294 9293 9291 9289 9288 9287 9285 9284 9283 9281 9280 9279 9277 9276 9275 9274 9273 9270 9269 9268 9267 9266 9265 9263 9261 9260 9258 9257 9256 9255 9254 9251 9250 9248 9247 9245 9244 9243 9242 9241 9239 9237 9236 9234 9230 9229 9228 9227 9223 9222 9221 9219 9216 9215 9213 9212 9211 9210 9209 9207 9206 9205 9204 9203 9202 9201 9199 9198 9196 9195 9194 9193 9192 9188 9187 9186 9185 9184 9183 9181 9180 9177 9176 9174 9172 9171 9170 9169 9167 9166 9165 9164 9163 9162 9161 9160 9159 9158 9154 9152 9151 9150 9149 9148 9147 9146 9145 9143 9142 9139 9135 9134 9133 9131 9127 9126 9125 9124 9123 9121 9120 9118 9117 9115 9114 9113 9111 9109 9108 9106 9105 9104 9103 9102 9099 9097 9096 9094 9093 9092 9089 9087 9086 9085 9083 9082 9081 9079 9078 9077 9076 9073 9072 9070 9069 9067 9064 9060 9059 9057 9055 9053 9051 9048 9046 9044 9043 9041 9039 9038 9036 9035 9034 9033 9032 9031 9030 9028 9027 9026 9025 9024 9023 9022 9021 9018 9017 9016 9015 9013 9011 9010 9008 9006 9005 9004 9002 9001 9000 8998 8997 8995 8987 8985 8984 8983 8982 8981 8976 8975 8973 8972 8971 8969 8968 8967 8965 8963 8962 8961 8960 8958 8957 8955 8954 8953 8952 8951 8950 8946 8944 8943 8942 8940 8937 8936 8935 8934 8932 8931 8929 8928 8926 8925 8924 8923 8922 8921 8920 8914 8912 8910 8908 8906 8904 8899 8898 8897 8896 8893 8892 8891 8889 8888 8886 8884 8883 8882 8881 8880 8879 8877 8875 8874 8871 8870 8869 8868 8865 8864 8861 8860 8859 8857 8856 8854 8853 8852 8850 8847 8846 8845 8844 8843 8842 8841 8840 8839 8838 8837 8836 8834 8833 8832 8830 8829 8827 8826 8825 8824 8823 8822 8821 8820 8819 8818 8816 8814 8812 8810 8806 8804 8803 8801 8800 8799 8798 8797 8794 8793 8790 8788 8786 8785 8784 8783 8782 8781 8780 8778 8777 8774 8772 8771 8769 8768 8767 8765 8764 8763 8762 8761 8759 8758 8757 8756 8755 8753 8751 8750 8749 8748 8747 8746 8745 8744 8743 8742 8741 8737 8736 8735 8734 8732 8731 8729 8728 8727 8726 8725 8724 8723 8722 8720 8719 8718 8715 8712 8710 8707 8705 8704 8703 8702 8701 8698 8697 8696 8695 8694 8692 8690 8689 8685 8684 8683 8680 8679 8678 8674 8673 8670 8668 8665 8664 8663 8657 8656 8653 8650 8649 8648 8647 8646 8645 8644 8643 8641 8639 8638 8636 8635 8633 8632 8631 8630 8628 8626 8625 8624 8623 8622 8620 8619 8618 8617 8616 8615 8614 8613 8612 8610 8609 8607 8606 8605 8603 8600 8599 8598 8595 8594 8593 8592 8591 8590 8588 8587 8586 8585 8582 8581 8580 8579 8578 8577 8576 8574 8572 8569 8568 8567 8566 8565 8564 8563 8562 8560 8559 8558 8557 8555 8553 8551 8550 8549 8548 8546 8542 8539 8537 8536 8535 8534 8532 8531 8530 8527 8526 8525 8523 8522 8521 8520 8518 8516 8513 8512 8511 8507 8506 8505 8504 8500 8499 8498 8497 8494 8493 8492 8491 8490 8488 8484 8481 8480 8479 8476 8475 8473 8472 8471 8468 8467 8466 8464 8463 8462 8461 8460 8458 8457 8456 8455 8453 8452 8449 8446 8443 8442 8441 8440 8439 8437 8436 8434 8431 8429 8427 8426 8425 8424 8423 8422 8421 8420 8417 8416 8415 8413 8410 8409 8408 8407 8406 8405 8403 8402 8401 8400 8399 8397 8396 8394 8393 8392 8391 8390 8389 8388 8387 8385 8383 8382 8378 8377 8376 8375 8374 8373 8372 8371 8370 8369 8368 8367 8365 8364 8363 8361 8360 8357 8356 8354 8353 8352 8351 8349 8348 8347 8345 8344 8342 8340 8339 8337 8336 8334 8332 8331 8330 8329 8327 8325 8322 8320 8318 8317 8316 8314 8308 8307 8306 8305 8304 8303 8302 8301 8300 8299 8298 8297 8296 8295 8292 8289 8288 8287 8286 8285 8284 8283 8282 8278 8276 8273 8272 8271 8270 8269 8268 8265 8264 8263 8262 8261 8260 8259 8258 8257 8255 8254 8252 8250 8248 8246 8245 8244 8243 8242 8241 8240 8239 8238 8237 8236 8234 8232 8231 8229 8228 8227 8224 8222 8221 8219 8218 8217 8216 8215 8213 8212 8211 8210 8208 8207 8206 8203 8202 8201 8200 8199 8198 8197 8195 8194 8192 8190 8188 8187 8186 8185 8183 8181 8180 8179 8178 8177 8176 8175 8172 8171 8169 8168 8167 8166 8163 8162 8161 8160 8159 8158 8156 8154 8153 8152 8151 8149 8145 8144 8143 8140 8139 8138 8137 8131 8130 8129 8128 8126 8125 8124 8123 8122 8120 8118 8116 8114 8113 8112 8111 8107 8106 8104 8101 8100 8099 8097 8096 8095 8094 8092 8091 8089 8088 8087 8086 8085 8081 8078 8077 8076 8075 8074 8073 8072 8071 8070 8068 8067 8066 8065 8064 8063 8061 8059 8057 8056 8054 8053 8051 8050 8048 8046 8045 8043 8042 8041 8040 8039 8038 8036 8035 8033 8032 8031 8029 8028 8027 8025 8024 8022 8020 8019 8018 8016 8015 8013 8011 8010 8008 8007 8006 8005 8004 8003 8001 8000 7999 7998 7997 7994 7993 7992 7991 7990 7989 7987 7986 7985 7984 7983 7982 7981 7979 7978 7976 7973 7972 7971 7970 7968 7967 7966 7965 7964 7962 7961 7956 7955 7954 7953 7952 7951 7950 7949 7947 7946 7944 7943 7942 7940 7939 7938 7936 7934 7933 7932 7931 7930 7929 7927 7926 7925 7924 7921 7920 7919 7918 7915 7914 7913 7911 7910 7909 7908 7906 7904 7903 7901 7900 7899 7898 7897 7896 7893 7892 7891 7890 7889 7888 7886 7885 7884 7883 7882 7881 7880 7879 7878 7877 7876 7872 7871 7868 7867 7865 7863 7862 7861 7859 7858 7856 7855 7854 7853 7852 7851 7850 7849 7848 7847 7846 7845 7844 7842 7837 7836 7835 7834 7833 7832 7830 7829 7828 7827 7826 7825 7823 7822 7821 7820 7819 7818 7817 7814 7813 7812 7811 7810 7809 7808 7806 7805 7804 7803 7802 7801 7800 7798 7795 7794 7789 7786 7783 7780 7776 7775 7774 7772 7771 7769 7767 7766 7764 7763 7761 7759 7758 7757 7755 7751 7750 7749 7747 7745 7744 7743 7740 7737 7736 7734 7732 7731 7730 7729 7728 7727 7724 7722 7720 7719 7718 7716 7715 7713 7711 7709 7707 7706 7704 7703 7701 7700 7699 7698 7697 7696 7694 7692 7688 7687 7685 7682 7680 7679 7675 7674 7671 7666 7665 7664 7663 7661 7660 7659 7658 7656 7655 7653 7652 7651 7649 7648 7647 7646 7645 7644 7643 7642 7640 7639 7638 7637 7636 7635 7634 7633 7632 7630 7629 7627 7626 7625 7624 7623 7622 7621 7619 7617 7616 7614 7611 7609 7608 7607 7603 7602 7601 7600 7598 7597 7594 7593 7592 7591 7590 7589 7588 7586 7585 7584 7583 7582 7578 7576 7575 7574 7573 7571 7569 7568 7566 7565 7564 7563 7562 7561 7560 7559 7557 7556 7554 7553 7551 7550 7549 7548 7547 7546 7545 7543 7541 7540 7538 7537 7536 7533 7532 7531 7525 7523 7521 7519 7516 7515 7514 7511 7510 7509 7508 7507 7505 7502 7500 7498 7497 7496 7495 7494 7492 7490 7489 7488 7487 7486 7484 7481 7480 7479 7478 7477 7476 7475 7473 7472 7471 7470 7469 7468 7467 7466 7465 7464 7461 7460 7458 7457 7456 7455 7454 7452 7451 7449 7448 7447 7446 7445 7444 7441 7440 7439 7438 7437 7436 7431 7430 7429 7428 7426 7425 7423 7420 7419 7418 7417 7416 7415 7414 7413 7412 7409 7408 7407 7406 7405 7404 7403 7402 7400 7399 7398 7397 7395 7393 7392 7391 7390 7388 7386 7385 7384 7383 7382 7381 7380 7379 7378 7376 7374 7373 7372 7371 7370 7369 7368 7366 7365 7364 7363 7361 7360 7359 7358 7357 7356 7354 7352 7350 7349 7348 7347 7346 7343 7340 7338 7337 7336 7335 7334 7332 7331 7329 7328 7327 7324 7322 7319 7318 7317 7315 7314 7312 7311 7310 7309 7306 7304 7303 7302 7299 7297 7296 7294 7292 7291 7287 7286 7285 7284 7282 7280 7279 7278 7276 7273 7271 7270 7268 7267 7266 7265 7264 7259 7257 7254 7253 7251 7249 7247 7246 7244 7243 7242 7241 7239 7238 7237 7236 7235 7234 7233 7231 7230 7229 7228 7227 7226 7223 7222 7220 7219 7217 7216 7215 7214 7213 7212 7210 7207 7205 7202 7201 7200 7199 7197 7196 7195 7194 7192 7191 7190 7189 7188 7187 7186 7184 7182 7180 7179 7177 7176 7174 7173 7172 7171 7170 7169 7167 7166 7164 7163 7161 7159 7158 7157 7156 7154 7153 7152 7151 7150 7149 7148 7147 7146 7145 7144 7140 7136 7135 7133 7132 7131 7129 7128 7127 7124 7123 7122 7121 7120 7119 7118 7117 7116 7114 7113 7112 7110 7108 7107 7105 7104 7101 7099 7098 7092 7091 7090 7085 7080 7079 7078 7077 7076 7075 7074 7073 7072 7071 7070 7069 7068 7067 7066 7065 7062 7061 7060 7059 7058 7057 7055 7054 7053 7052 7050 7045 7044 7042 7041 7039 7037 7036 7034 7031 7030 7029 7028 7027 7024 7023 7022 7021 7020 7019 7018 7017 7015 7014 7013 7011 7009 7006 7005 7002 7000 6998 6995 6994 6991 6989 6988 6986 6985 6981 6979 6978 6975 6974 6972 6971 6969 6968 6967 6964 6963 6962 6961 6958 6957 6956 6955 6953 6952 6950 6949 6948 6947 6944 6941 6938 6933 6932 6930 6929 6927 6926 6925 6924 6923 6922 6921 6919 6918 6915 6914 6913 6912 6911 6910 6908 6905 6903 6902 6901 6900 6898 6897 6896 6894 6890 6889 6886 6882 6881 6880 6879 6878 6877 6875 6874 6871 6870 6869 6868 6866 6865 6863 6862 6861 6858 6854 6852 6851 6849 6848 6847 6845 6844 6843 6841 6840 6839 6837 6836 6835 6834 6833 6832 6831 6829 6828 6827 6826 6825 6823 6821 6820 6819 6817 6816 6815 6814 6813 6810 6807 6806 6805 6803 6802 6801 6800 6798 6797 6796 6795 6794 6791 6790 6788 6787 6786 6784 6780 6779 6778 6776 6774 6770 6769 6767 6766 6765 6764 6763 6762 6759 6758 6757 6756 6754 6753 6751 6750 6749 6748 6747 6746 6745 6744 6742 6741 6739 6738 6737 6735 6734 6733 6732 6731 6730 6728 6727 6725 6723 6721 6718 6716 6715 6714 6713 6712 6711 6710 6708 6706 6705 6704 6703 6702 6701 6698 6697 6696 6695 6694 6692 6691 6689 6688 6685 6684 6682 6680 6679 6678 6677 6676 6673 6672 6671 6670 6669 6668 6667 6666 6665 6664 6663 6662 6660 6659 6658 6657 6655 6654 6653 6652 6651 6648 6647 6646 6645 6644 6641 6640 6638 6637 6636 6635 6631 6630 6627 6626 6625 6624 6623 6621 6616 6615 6614 6612 6611 6610 6609 6608 6607 6606 6604 6602 6600 6599 6595 6594 6593 6592 6591 6589 6588 6586 6583 6582 6578 6577 6576 6575 6573 6572 6571 6570 6569 6568 6567 6566 6564 6562 6561 6560 6559 6558 6557 6556 6555 6553 6552 6551 6550 6549 6547 6546 6545 6542 6541 6539 6538 6537 6536 6535 6534 6533 6532 6531 6530 6529 6527 6526 6525 6522 6521 6520 6516 6515 6513 6512 6511 6510 6509 6508 6507 6506 6503 6502 6500 6498 6497 6495 6494 6493 6491 6490 6489 6488 6486 6485 6484 6482 6480 6479 6478 6477 6475 6474 6473 6472 6471 6469 6468 6467 6466 6465 6464 6463 6462 6461 6460 6459 6458 6457 6455 6453 6452 6448 6445 6442 6440 6439 6438 6437 6436 6433 6432 6430 6428 6425 6424 6423 6422 6420 6419 6417 6414 6412 6411 6409 6408 6406 6405 6404 6401 6400 6399 6398 6397 6396 6394 6393 6392 6391 6390 6389 6388 6387 6386 6385 6384 6383 6382 6381 6379 6378 6377 6375 6374 6371 6370 6368 6366 6365 6364 6363 6362 6361 6360 6359 6358 6355 6352 6351 6350 6348 6347 6346 6344 6343 6341 6340 6339 6338 6336 6334 6333 6331 6330 6329 6328 6326 6324 6323 6322 6319 6318 6317 6316 6314 6313 6312 6311 6310 6309 6306 6305 6304 6303 6302 6301 6299 6298 6296 6295 6294 6290 6289 6288 6287 6286 6285 6282 6281 6280 6279 6278 6277 6274 6273 6272 6269 6267 6265 6264 6263 6262 6260 6259 6257 6256 6255 6254 6253 6249 6248 6246 6245 6244 6243 6242 6241 6240 6237 6236 6234 6233 6232 6231 6229 6228 6227 6226 6224 6223 6221 6218 6215 6213 6212 6211 6208 6207 6203 6200 6199 6197 6196 6195 6194 6193 6192 6191 6190 6189 6187 6186 6185 6184 6183 6182 6181 6179 6177 6176 6174 6173 6170 6169 6167 6166 6165 6163 6162 6160 6158 6156 6154 6153 6152 6151 6150 6149 6147 6144 6143 6141 6140 6139 6138 6137 6136 6135 6134 6133 6132 6131 6130 6129 6127 6126 6125 6124 6120 6119 6116 6115 6114 6113 6112 6111 6110 6109 6108 6106 6105 6104 6103 6102 6101 6099 6098 6097 6096 6095 6094 6093 6092 6091 6090 6089 6087 6085 6082 6080 6074 6072 6071 6070 6066 6063 6062 6061 6058 6056 6054 6053 6052 6051 6050 6048 6047 6045 6044 6043 6042 6040 6036 6035 6034 6033 6031 6030 6029 6028 6026 6025 6024 6023 6021 6018 6016 6014 6013 6012 6007 6006 6005 6004 6002 6001 6000 5999 5998 5997 5995 5994 5993 5992 5991 5990 5987 5985 5984 5983 5982 5980 5979 5978 5976 5975 5974 5973 5971 5969 5968 5965 5964 5960 5958 5957 5956 5955 5954 5953 5950 5947 5946 5945 5944 5943 5942 5941 5940 5939 5938 5934 5933 5931 5930 5929 5928 5927 5926 5924 5923 5920 5913 5909 5907 5906 5904 5901 5900 5897 5896 5895 5894 5893 5892 5891 5890 5888 5887 5885 5882 5880 5879 5878 5877 5876 5872 5871 5870 5869 5868 5867 5866 5864 5863 5862 5861 5860 5858 5857 5856 5853 5851 5850 5849 5847 5845 5844 5843 5839 5838 5837 5836 5835 5834 5833 5829 5828 5827 5826 5825 5823 5819 5818 5816 5814 5811 5810 5809 5806 5805 5803 5799 5798 5797 5795 5793 5791 5790 5789 5787 5786 5785 5783 5782 5781 5778 5777 5776 5775 5773 5770 5769 5765 5764 5762 5761 5760 5757 5756 5751 5749 5747 5746 5744 5742 5739 5738 5737 5735 5734 5733 5732 5730 5728 5727 5726 5723 5722 5721 5720 5719 5718 5717 5716 5715 5714 5712 5710 5709 5708 5706 5705 5704 5703 5701 5700 5699 5697 5692 5690 5689 5688 5687 5681 5679 5678 5677 5676 5675 5672 5670 5666 5665 5663 5662 5660 5659 5658 5656 5655 5654 5652 5651 5650 5649 5648 5647 5643 5640 5639 5638 5636 5634 5628 5627 5626 5625 5623 5621 5620 5619 5618 5616 5615 5613 5612 5611 5609 5608 5607 5606 5605 5604 5603 5601 5600 5599 5598 5596 5594 5593 5592 5591 5590 5589 5588 5586 5584 5583 5582 5581 5580 5579 5578 5577 5576 5575 5574 5573 5572 5571 5570 5569 5567 5565 5562 5561 5560 5559 5558 5557 5556 5553 5552 5551 5550 5549 5548 5547 5544 5543 5542 5538 5537 5536 5534 5532 5530 5529 5528 5527 5526 5523 5522 5521 5520 5519 5518 5517 5516 5515 5514 5513 5512 5510 5509 5508 5507 5506 5504 5503 5502 5501 5499 5498 5494 5493 5492 5491 5489 5488 5485 5484 5482 5481 5480 5477 5473 5471 5470 5469 5467 5465 5463 5462 5461 5460 5457 5456 5452 5451 5447 5444 5442 5441 5439 5438 5436 5435 5434 5432 5431 5429 5427 5426 5424 5422 5419 5418 5413 5412 5409 5407 5406 5405 5404 5403 5402 5401 5399 5398 5397 5394 5391 5390 5389 5388 5386 5384 5383 5381 5379 5378 5377 5376 5375 5374 5371 5370 5369 5368 5366 5364 5363 5360 5357 5355 5353 5352 5351 5350 5349 5347 5346 5345 5344 5343 5342 5341 5340 5339 5336 5335 5334 5332 5331 5330 5329 5328 5326 5325 5324 5323 5322 5321 5320 5319 5318 5317 5316 5313 5312 5311 5310 5304 5302 5301 5300 5298 5297 5295 5293 5292 5291 5290 5289 5286 5285 5284 5283 5282 5281 5279 5278 5277 5276 5275 5274 5272 5270 5269 5268 5266 5265 5264 5263 5261 5260 5259 5258 5257 5254 5253 5252 5251 5250 5249 5248 5246 5245 5243 5241 5240 5239 5238 5236 5234 5231 5229 5228 5227 5226 5223 5221 5220 5219 5218 5214 5213 5212 5211 5210 5209 5208 5206 5204 5203 5202 5197 5196 5191 5189 5188 5187 5185 5184 5182 5181 5180 5179 5178 5177 5176 5175 5174 5173 5172 5170 5169 5168 5166 5164 5163 5162 5159 5158 5157 5156 5154 5153 5150 5149 5144 5142 5141 5140 5138 5136 5134 5132 5131 5130 5128 5126 5124 5123 5121 5119 5118 5117 5116 5114 5113 5111 5110 5108 5107 5106 5105 5104 5102 5101 5100 5099 5098 5097 5095 5093 5092 5091 5090 5089 5088 5086 5085 5084 5080 5079 5078 5077 5076 5075 5074 5073 5067 5065 5064 5063 5062 5060 5059 5058 5055 5054 5053 5052 5049 5048 5047 5046 5045 5044 5043 5041 5040 5039 5036 5035 5034 5033 5032 5031 5029 5026 5024 5023 5022 5021 5020 5019 5018 5016 5015 5013 5012 5011 5009 5008 5007 5006 5004 5003 5002 5000 4999 4998 4995 4994 4992 4991 4989 4988 4987 4986 4984 4983 4982 4980 4979 4974 4972 4971 4970 4969 4968 4967 4966 4965 4964 4962 4961 4960 4959 4958 4957 4956 4955 4954 4952 4951 4949 4944 4941 4938 4937 4936 4935 4933 4932 4930 4929 4925 4924 4923 4922 4921 4920 4919 4917 4913 4911 4910 4909 4907 4905 4903 4902 4900 4899 4898 4894 4893 4892 4890 4889 4888 4886 4884 4880 4879 4878 4877 4876 4873 4872 4871 4870 4869 4868 4866 4865 4864 4862 4861 4860 4857 4856 4853 4851 4849 4848 4847 4844 4843 4842 4841 4838 4835 4834 4833 4832 4828 4827 4824 4823 4821 4820 4819 4818 4816 4814 4813 4812 4809 4808 4807 4806 4805 4804 4803 4801 4800 4799 4796 4795 4792 4791 4789 4788 4787 4786 4780 4779 4777 4776 4774 4773 4772 4770 4769 4767 4766 4765 4764 4763 4761 4760 4759 4758 4757 4755 4754 4751 4750 4749 4748 4747 4745 4743 4742 4741 4739 4737 4736 4735 4733 4732 4730 4729 4727 4726 4724 4723 4721 4718 4716 4712 4708 4706 4705 4701 4700 4699 4696 4694 4693 4691 4690 4689 4686 4685 4683 4681 4679 4678 4677 4676 4675 4674 4673 4671 4670 4669 4668 4666 4664 4663 4659 4658 4656 4655 4654 4653 4652 4650 4649 4648 4647 4646 4645 4644 4643 4642 4641 4638 4635 4633 4632 4630 4628 4627 4625 4624 4623 4622 4621 4620 4618 4616 4614 4613 4612 4610 4607 4606 4605 4604 4602 4601 4600 4598 4595 4594 4592 4591 4589 4588 4585 4584 4583 4582 4581 4580 4579 4578 4577 4576 4575 4574 4573 4571 4569 4567 4566 4565 4564 4562 4561 4560 4559 4558 4557 4556 4555 4554 4553 4552 4551 4550 4546 4545 4544 4543 4540 4539 4538 4537 4535 4534 4533 4532 4531 4530 4527 4526 4525 4524 4522 4520 4519 4518 4517 4516 4515 4513 4512 4510 4509 4508 4507 4505 4503 4500 4499 4498 4497 4495 4494 4493 4492 4489 4487 4486 4485 4483 4481 4480 4479 4478 4476 4474 4473 4471 4470 4466 4464 4461 4460 4459 4457 4456 4455 4454 4452 4450 4449 4447 4446 4445 4444 4442 4440 4439 4438 4437 4436 4434 4433 4430 4428 4427 4426 4425 4424 4423 4419 4418 4417 4416 4415 4414 4412 4411 4409 4408 4406 4405 4404 4403 4402 4401 4400 4399 4397 4394 4393 4392 4391 4390 4389 4388 4387 4385 4382 4379 4377 4373 4372 4371 4370 4369 4366 4365 4364 4363 4362 4361 4360 4359 4358 4357 4356 4355 4354 4353 4352 4351 4349 4347 4341 4340 4337 4336 4333 4332 4330 4329 4327 4326 4325 4321 4319 4318 4316 4315 4311 4310 4309 4308 4307 4306 4305 4304 4302 4300 4298 4295 4294 4293 4292 4290 4289 4287 4286 4285 4284 4283 4282 4280 4279 4278 4277 4273 4272 4271 4270 4269 4268 4267 4265 4264 4262 4260 4256 4253 4252 4251 4250 4249 4248 4247 4246 4244 4243 4242 4241 4237 4234 4232 4231 4230 4229 4227 4225 4223 4222 4219 4217 4216 4214 4212 4209 4208 4207 4206 4204 4203 4202 4200 4199 4198 4195 4192 4191 4189 4187 4185 4183 4182 4181 4179 4178 4177 4175 4174 4173 4171 4170 4166 4161 4159 4158 4157 4156 4155 4154 4151 4150 4149 4148 4147 4146 4144 4143 4142 4141 4139 4138 4135 4131 4128 4127 4122 4120 4119 4117 4116 4115 4114 4113 4110 4108 4106 4105 4104 4102 4101 4100 4099 4097 4096 4093 4092 4089 4088 4086 4085 4084 4083 4082 4081 4080 4077 4075 4074 4073 4072 4071 4069 4067 4065 4063 4062 4060 4059 4058 4057 4055 4054 4053 4052 4051 4050 4048 4047 4046 4045 4044 4043 4041 4040 4039 4038 4037 4034 4033 4030 4028 4027 4026 4025 4021 4020 4019 4018 4015 4014 4013 4012 4010 4009 4008 4006 4003 4002 4001 4000 3999 3998 3997 3996 3995 3994 3993 3992 3991 3990 3989 3987 3986 3985 3984 3982 3981 3979 3978 3976 3975 3973 3972 3971 3966 3964 3962 3961 3959 3958 3957 3956 3955 3954 3953 3951 3950 3949 3948 3947 3945 3944 3943 3939 3935 3934 3933 3932 3930 3929 3927 3925 3924 3923 3922 3921 3920 3919 3917 3916 3915 3914 3913 3912 3911 3910 3907 3906 3904 3903 3902 3901 3900 3899 3897 3896 3895 3891 3890 3889 3888 3887 3884 3883 3882 3881 3879 3878 3877 3876 3875 3874 3872 3871 3866 3865 3864 3862 3861 3860 3859 3858 3855 3853 3851 3850 3848 3847 3846 3842 3841 3840 3839 3838 3837 3836 3835 3833 3831 3830 3828 3826 3824 3823 3822 3819 3817 3816 3815 3814 3813 3810 3809 3808 3806 3800 3799 3798 3796 3795 3793 3792 3791 3790 3788 3787 3786 3783 3782 3781 3780 3778 3776 3775 3773 3772 3769 3768 3767 3766 3765 3764 3763 3762 3761 3760 3759 3758 3756 3754 3753 3752 3750 3748 3746 3745 3743 3741 3740 3739 3738 3737 3736 3735 3733 3732 3729 3728 3727 3726 3724 3722 3721 3720 3719 3717 3716 3715 3714 3712 3711 3709 3707 3702 3699 3698 3697 3695 3694 3693 3692 3691 3690 3687 3685 3684 3683 3682 3680 3679 3678 3676 3675 3673 3672 3670 3669 3668 3667 3666 3665 3664 3663 3662 3661 3660 3659 3658 3657 3656 3653 3652 3651 3650 3648 3647 3646 3644 3643 3642 3640 3639 3638 3637 3636 3635 3633 3632 3631 3630 3629 3628 3627 3626 3625 3624 3623 3620 3619 3618 3616 3615 3611 3610 3608 3607 3606 3605 3604 3603 3600 3599 3596 3593 3592 3591 3590 3588 3587 3586 3585 3584 3583 3582 3581 3580 3579 3577 3576 3575 3574 3572 3571 3570 3569 3568 3567 3565 3563 3562 3561 3560 3556 3555 3552 3550 3549 3547 3545 3543 3542 3539 3537 3536 3527 3525 3523 3522 3520 3519 3518 3517 3516 3515 3514 3513 3512 3511 3509 3508 3507 3506 3505 3504 3503 3501 3500 3499 3498 3497 3496 3495 3494 3491 3490 3489 3488 3484 3483 3479 3476 3474 3473 3472 3471 3470 3469 3468 3466 3465 3463 3462 3461 3460 3459 3458 3457 3456 3455 3452 3451 3450 3449 3446 3445 3444 3443 3442 3438 3437 3436 3435 3432 3430 3429 3428 3427 3426 3425 3423 3422 3421 3420 3419 3418 3417 3413 3411 3410 3409 3408 3407 3406 3404 3403 3402 3401 3400 3399 3397 3396 3394 3393 3390 3389 3388 3387 3386 3385 3382 3381 3377 3376 3374 3373 3372 3371 3370 3369 3368 3366 3365 3363 3362 3361 3360 3359 3358 3356 3355 3354 3350 3348 3347 3346 3345 3343 3341 3339 3338 3337 3335 3333 3332 3331 3330 3329 3328 3327 3326 3325 3324 3323 3320 3319 3318 3317 3316 3313 3311 3310 3309 3308 3306 3305 3304 3303 3300 3299 3298 3296 3295 3294 3293 3291 3290 3289 3288 3285 3284 3283 3281 3280 3279 3278 3277 3275 3271 3270 3267 3266 3263 3262 3261 3260 3256 3255 3253 3252 3250 3249 3247 3246 3245 3244 3243 3242 3241 3240 3238 3237 3236 3234 3231 3230 3229 3228 3226 3225 3221 3220 3219 3218 3215 3214 3212 3211 3210 3209 3207 3203 3202 3201 3199 3198 3197 3195 3194 3193 3192 3190 3188 3187 3186 3184 3183 3182 3181 3180 3179 3178 3175 3170 3167 3166 3164 3163 3162 3161 3160 3158 3157 3156 3155 3154 3153 3150 3148 3146 3144 3143 3142 3140 3138 3137 3136 3135 3134 3132 3131 3130 3129 3128 3127 3126 3125 3121 3120 3117 3116 3114 3113 3112 3110 3108 3106 3104 3103 3101 3100 3098 3096 3095 3094 3091 3090 3089 3088 3086 3085 3082 3081 3079 3078 3077 3076 3075 3074 3073 3071 3070 3069 3068 3067 3066 3065 3063 3062 3060 3059 3057 3053 3052 3051 3049 3048 3047 3043 3042 3041 3039 3038 3036 3034 3033 3032 3031 3030 3029 3028 3027 3025 3024 3023 3022 3021 3020 3017 3016 3014 3013 3010 3009 3008 3007 3005 3004 3002 3000 2999 2997 2996 2995 2994 2993 2991 2989 2987 2984 2981 2980 2979 2978 2977 2973 2970 2968 2967 2966 2965 2963 2961 2959 2958 2956 2954 2952 2951 2950 2949 2946 2945 2942 2941 2937 2936 2935 2934 2933 2931 2930 2928 2927 2926 2925 2924 2923 2921 2920 2918 2917 2916 2915 2913 2911 2910 2907 2906 2901 2899 2898 2897 2896 2894 2893 2892 2891 2889 2887 2886 2884 2883 2881 2880 2878 2877 2876 2875 2874 2873 2870 2869 2868 2863 2861 2860 2859 2858 2857 2854 2851 2850 2848 2847 2846 2845 2844 2843 2840 2839 2837 2836 2834 2833 2832 2831 2829 2828 2826 2824 2820 2815 2813 2812 2811 2810 2808 2807 2806 2805 2804 2803 2802 2800 2799 2798 2797 2796 2795 2791 2790 2789 2788 2787 2786 2784 2782 2781 2780 2779 2778 2777 2775 2773 2772 2771 2770 2769 2768 2766 2764 2762 2761 2759 2758 2757 2756 2755 2754 2753 2752 2751 2750 2745 2744 2742 2741 2740 2739 2737 2736 2733 2732 2730 2729 2728 2725 2724 2723 2722 2721 2720 2718 2717 2716 2714 2711 2710 2708 2707 2706 2704 2702 2700 2698 2697 2695 2694 2693 2692 2691 2690 2689 2685 2683 2681 2680 2679 2677 2676 2675 2673 2672 2671 2670 2668 2667 2666 2663 2662 2661 2660 2658 2657 2656 2655 2654 2652 2651 2648 2647 2646 2645 2642 2641 2640 2639 2638 2637 2636 2634 2633 2632 2631 2630 2629 2626 2625 2624 2622 2620 2619 2618 2617 2616 2615 2614 2611 2608 2606 2605 2604 2602 2601 2600 2599 2598 2597 2596 2595 2594 2591 2590 2588 2587 2586 2581 2580 2579 2578 2577 2576 2575 2574 2573 2569 2568 2565 2564 2563 2562 2561 2560 2557 2556 2555 2554 2553 2551 2550 2549 2548 2547 2546 2544 2543 2540 2539 2538 2534 2533 2530 2527 2524 2523 2520 2519 2518 2517 2515 2514 2512 2511 2510 2509 2508 2507 2506 2504 2503 2502 2499 2498 2497 2496 2495 2493 2492 2489 2488 2487 2486 2484 2483 2482 2481 2479 2478 2477 2475 2473 2472 2469 2468 2466 2465 2462 2461 2460 2459 2458 2456 2455 2454 2452 2451 2450 2449 2447 2446 2445 2444 2443 2440 2439 2438 2437 2436 2434 2433 2432 2431 2429 2428 2427 2426 2424 2423 2420 2417 2416 2415 2414 2413 2412 2410 2407 2406 2405 2404 2403 2402 2401 2399 2397 2392 2391 2387 2383 2382 2381 2380 2378 2377 2376 2375 2372 2371 2369 2365 2362 2360 2359 2358 2357 2356 2354 2352 2351 2349 2348 2347 2345 2344 2342 2341 2340 2339 2338 2337 2336 2335 2334 2333 2332 2331 2330 2329 2327 2326 2325 2323 2321 2320 2318 2315 2313 2312 2309 2305 2304 2303 2302 2300 2298 2297 2295 2294 2293 2291 2290 2289 2288 2286 2284 2282 2281 2279 2278 2277 2276 2275 2273 2272 2271 2269 2268 2265 2263 2260 2259 2258 2257 2255 2254 2253 2249 2248 2247 2246 2245 2244 2242 2241 2240 2239 2238 2237 2236 2235 2234 2233 2232 2231 2230 2228 2227 2226 2225 2224 2222 2220 2218 2216 2214 2213 2210 2209 2208 2207 2206 2205 2204 2201 2197 2195 2194 2193 2191 2188 2187 2186 2185 2184 2181 2180 2178 2177 2176 2175 2173 2172 2171 2170 2169 2168 2165 2164 2163 2160 2158 2157 2156 2155 2154 2153 2151 2150 2149 2148 2146 2144 2143 2142 2141 2139 2138 2137 2135 2134 2132 2131 2130 2129 2128 2126 2124 2122 2121 2119 2118 2117 2116 2114 2113 2112 2111 2110 2109 2108 2106 2105 2104 2103 2100 2099 2098 2096 2094 2093 2092 2091 2090 2088 2087 2085 2081 2080 2079 2078 2076 2075 2074 2073 2072 2071 2069 2068 2066 2063 2062 2061 2060 2058 2056 2055 2054 2053 2052 2051 2050 2048 2046 2044 2043 2042 2041 2040 2039 2038 2035 2033 2031 2030 2028 2027 2026 2025 2023 2022 2017 2016 2014 2012 2011 2010 2007 2006 2005 2003 2002 2001 2000 1999 1998 1994 1993 1992 1991 1988 1986 1985 1984 1983 1980 1974 1973 1970 1969 1968 1967 1966 1965 1964 1963 1962 1961 1960 1959 1958 1957 1956 1955 1954 1952 1951 1949 1948 1947 1946 1945 1943 1942 1941 1940 1939 1938 1936 1934 1933 1931 1929 1928 1927 1926 1924 1922 1919 1917 1916 1915 1913 1912 1910 1909 1908 1907 1906 1904 1901 1900 1899 1898 1897 1896 1893 1892 1890 1889 1888 1885 1884 1883 1882 1878 1877 1876 1875 1873 1872 1871 1869 1868 1867 1865 1861 1860 1859 1858 1857 1856 1855 1853 1852 1850 1849 1847 1845 1844 1843 1839 1838 1837 1836 1835 1834 1833 1832 1831 1830 1829 1827 1825 1822 1821 1819 1818 1817 1816 1815 1814 1811 1810 1809 1806 1804 1803 1802 1801 1800 1799 1798 1795 1794 1793 1791 1790 1787 1785 1784 1783 1782 1781 1780 1775 1774 1773 1772 1771 1770 1769 1763 1761 1760 1759 1758 1757 1756 1755 1754 1752 1751 1750 1749 1748 1746 1744 1743 1742 1739 1738 1737 1736 1735 1734 1733 1731 1730 1728 1727 1726 1724 1723 1721 1719 1718 1717 1714 1712 1709 1708 1707 1706 1704 1703 1702 1701 1700 1698 1697 1695 1694 1693 1692 1691 1690 1689 1684 1683 1682 1675 1673 1670 1667 1664 1663 1662 1661 1657 1655 1653 1652 1650 1647 1644 1643 1642 1641 1640 1638 1636 1635 1634 1632 1631 1625 1623 1621 1619 1617 1616 1613 1612 1611 1610 1608 1607 1606 1604 1603 1601 1600 1598 1597 1596 1594 1593 1591 1590 1589 1588 1585 1584 1582 1580 1579 1578 1577 1575 1573 1571 1570 1567 1566 1564 1563 1562 1560 1558 1557 1556 1555 1554 1553 1552 1550 1548 1547 1546 1545 1544 1541 1539 1538 1537 1535 1534 1532 1531 1530 1529 1528 1524 1523 1521 1520 1519 1517 1516 1515 1514 1513 1512 1510 1509 1508 1505 1504 1503 1502 1501 1500 1497 1495 1493 1492 1489 1488 1486 1484 1483 1481 1478 1477 1476 1475 1474 1473 1470 1468 1467 1464 1459 1458 1457 1456 1454 1453 1449 1446 1445 1444 1443 1442 1441 1440 1436 1434 1433 1432 1431 1430 1429 1428 1426 1425 1424 1422 1421 1420 1419 1418 1416 1414 1412 1411 1409 1408 1407 1406 1404 1403 1402 1401 1400 1396 1393 1392 1391 1389 1388 1387 1385 1381 1380 1375 1374 1370 1369 1367 1366 1364 1363 1361 1358 1357 1356 1352 1351 1349 1347 1345 1344 1341 1340 1339 1338 1337 1336 1335 1333 1332 1331 1330 1329 1328 1327 1325 1324 1322 1319 1317 1316 1315 1313 1311 1309 1308 1307 1306 1305 1301 1300 1299 1298 1297 1296 1293 1292 1291 1287 1286 1285 1284 1283 1281 1280 1279 1276 1274 1273 1272 1271 1270 1269 1268 1267 1266 1265 1264 1263 1262 1260 1258 1256 1253 1252 1251 1250 1249 1247 1246 1245 1243 1242 1241 1240 1239 1234 1233 1229 1226 1225 1224 1223 1221 1220 1217 1216 1214 1211 1209 1208 1207 1206 1205 1204 1203 1202 1201 1200 1197 1196 1193 1191 1190 1189 1188 1187 1186 1185 1183 1182 1181 1180 1176 1174 1173 1172 1170 1169 1167 1165 1164 1162 1161 1160 1159 1158 1156 1154 1152 1151 1150 1149 1148 1146 1145 1144 1142 1141 1140 1139 1136 1135 1132 1131 1129 1127 1126 1125 1124 1123 1122 1121 1116 1113 1112 1111 1108 1106 1105 1101 1100 1099 1095 1094 1093 1091 1090 1084 1083 1081 1080 1079 1078 1077 1075 1074 1073 1072 1071 1070 1069 1068 1067 1066 1064 1063 1062 1061 1060 1059 1058 1057 1052 1051 1050 1049 1048 1046 1044 1043 1042 1041 1040 1038 1036 1035 1031 1030 1029 1027 1023 1022 1020 1019 1017 1016 1015 1014 1013 1012 1011 1010 1008 1007 1005 1004 1003 1002 1001 998 994 993 988 987 986 985 984 983 982 981 980 979 977 975 974 973 972 970 969 967 964 963 962 961 960 958 957 956 954 953 951 950 949 948 946 945 943 942 941 940 939 938 937 936 934 933 932 931 930 929 927 926 924 923 922 921 919 918 917 916 914 912 909 908 907 906 905 903 902 900 898 897 895 894 893 892 891 890 889 886 884 881 880 879 878 877 876 875 874 873 871 870 868 867 865 864 863 862 861 858 857 855 854 852 851 848 847 846 845 843 840 839 838 837 835 834 831 830 829 828 827 826 825 823 822 821 819 818 816 814 812 810 809 808 804 803 802 800 799 797 796 795 794 793 792 791 790 789 786 785 783 782 781 780 779 778 777 776 773 770 768 767 765 764 763 762 761 760 759 757 756 755 754 750 749 746 744 743 742 740 739 736 734 731 730 729 727 726 725 724 723 722 721 720 719 718 715 714 713 711 710 709 708 707 706 704 702 699 698 697 696 693 692 691 690 689 687 686 685 684 683 682 681 680 677 676 675 673 671 670 669 668 663 662 661 660 659 658 657 656 654 653 648 647 645 643 642 641 640 636 635 634 633 632 631 630 629 628 627 626 625 624 620 619 618 617 616 615 613 612 611 609 607 605 604 603 601 600 596 595 594 592 591 590 588 587 585 584 583 582 581 580 577 575 574 573 572 571 570 568 566 565 564 563 562 561 560 559 558 557 556 552 551 549 548 547 546 544 543 539 538 537 536 535 533 532 531 529 528 527 526 525 524 523 520 518 517 516 515 514 512 511 510 506 505 504 503 500 497 496 494 493 492 491 490 488 483 481 479 478 477 476 474 473 470 469 468 466 465 463 462 460 458 457 456 452 451 450 449 447 443 442 441 440 439 438 437 436 433 430 428 423 422 421 420 419 418 416 414 413 412 411 409 408 407 406 405 404 401 400 399 398 397 390 389 388 387 385 384 382 381 380 379 378 376 375 373 370 369 368 366 365 364 363 362 361 360 359 358 357 356 355 354 353 348 347 346 343 342 341 340 338 337 336 335 334 333 332 331 329 327 326 325 324 323 321 319 318 316 315 314 311 310 309 308 307 305 304 303 302 301 300 298 296 295 294 293 291 287 286 285 284 282 281 280 276 275 274 273 271 270 269 268 267 266 264 263 260 258 256 254 253 251 249 247 245 244 243 241 240 239 238 236 235 234 233 232 229 227 226 221 219 217 216 215 214 213 212 211 210 209 208 205 204 203 202 201 200 198 197 196 193 192 190 188 187 186 185 184 183 182 181 179 177 171 169 167 165 162 161 160 158 157 156 155 154 153 152 151 150 149 148 147 146 145 144 143 142 141 140 137 132 127 126 125 124 123 121 120 119 117 116 115 114 113 112 111 109 108 106 105 103 102 101 99 97 96 95 94 92 91 90 89 88 85 84 81 79 78 76 74 73 72 71 70 69 68 67 65 64 63 62 61 58 57 56 55 53 52 51 49 46 44 40 39 37 36 35 32 31 30 29 28 27 26 24 23 22 21 20 16 11 9 8 7 5 4 3
