1000
999483039 719
999565719 659
999994375 75
999969375 175
999522519 691
999822759 421
999991164 94
999891759 329
999393159 779
999853311 383
999868956 362
999284284 846
999801975 445
999296079 839
999329239 819
999684156 562
999465639 731
999635184 604
999972775 165
999969024 176
999495900 710
999072631 963
999773424 476
999967959 179
999885079 339
999426951 757
999964656 188
999770559 479
999836784 404
999989184 104
999521136 692
999933951 257
999074556 962
999999424 24
999803751 443
999616839 619
999536239 681
999914736 292
999471471 727
999926016 272
999091791 953
999596775 635
999133239 931
999944304 236
999367975 795
999394716 778
999713775 535
999857871 377
999294400 840
999653079 589
999923824 276
999740919 509
999756951 493
999097500 950
999799296 448
999977500 150
999449436 742
999981504 136
999811644 434
999974719 159
999880284 346
999372736 792
999953775 215
999007984 996
999807279 439
999564400 660
999555111 667
999920476 282
999317724 826
999991900 90
999999996 2
999138816 928
999059100 970
999404016 772
999821071 423
999999100 30
999618076 618
999366384 796
999833536 408
999974400 160
999162775 915
999812511 433
999829431 413
999660111 583
999956736 208
999933436 258
999999951 7
999380631 787
999869679 361
999234375 875
999990396 98
999997399 51
999776271 473
999928711 267
999814239 431
999530775 685
999999559 21
999930304 264
999239616 872
999966144 184
999423919 759
999780039 469
999502975 705
999099399 949
999516975 695
999146224 924
999792975 455
999307776 832
999076479 961
999999216 28
999750000 500
999859375 375
999960399 199
999874684 354
999193596 898
999399375 775
999925471 273
999806400 440
999701884 546
999974079 161
999379056 788
999029775 985
999321024 824
999761856 488
999215004 886
999985359 121
999887775 335
999946176 232
999348751 807
999729600 520
999419356 762
999725424 524
999998151 43
999978684 146
999922716 278
999590400 640
999978096 148
999204336 892
999998844 34
999322671 823
999802864 444
999782844 466
999982839 131
999356796 802
999488775 715
999621775 615
999941919 241
999939975 245
999225600 880
999417831 763
999965775 185
999478716 722
999998319 41
999334144 816
999637596 602
999561756 662
999195391 897
999780976 468
999993439 81
999996975 55
999407100 770
999053271 973
999963900 190
999766711 483
999610624 624
999763804 486
999957975 205
999636391 603
999576199 651
999962751 193
999585264 644
999541671 677
999537600 680
999999676 18
999443484 746
999996031 63
999991536 92
999149916 922
999197184 896
999927100 270
999422400 760
999997084 54
999998631 37
999999039 31
999971100 170
999986775 115
999669375 575
999892416 328
999883719 341
999994816 72
999244839 869
999223839 881
999988551 107
999989799 101
999216775 885
999540316 678
999963136 192
999078400 960
999912384 296
999472924 726
999456831 737
999992775 85
999927639 269
999574896 652
999444975 745
999707319 541
999396271 777
999648351 593
999738879 511
999876799 351
999251775 865
999955900 210
999839199 401
999934464 256
999033711 983
999991719 91
999510000 700
999246576 868
999790236 458
999084151 957
999816816 428
999955479 211
999867504 364
999464176 732
999405559 771
999335775 815
999159111 917
999431484 754
999751996 498
999999975 5
999994224 76
999808156 438
999514191 697
999447951 743
999973104 164
999595504 636
999985600 120
999931356 262
999999711 17
999824439 419
999988119 109
999657775 585
999895671 323
999918204 286
999995511 67
999842391 397
999691975 555
999538959 679
999153600 920
999843184 396
999837591 403
999990199 99
999961975 195
999633975 605
999351975 805
999280896 848
999343900 810
999896316 322
999453879 739
999992604 86
999993600 80
999986544 116
999880975 345
999961191 197
999429975 755
999985839 119
999912975 295
999410176 768
999893071 327
999342279 811
999997884 46
999991351 93
999179164 906
999977199 151
999778159 471
999168256 912
999954631 213
999045471 977
999828604 414
999943356 238
999260400 860
999796599 451
999835975 405
999262119 859
999035676 982
999999856 12
999508599 701
999551100 670
999311100 830
999025831 987
999775324 474
999957151 207
999975036 158
999800191 447
999984624 124
999995239 69
999160944 916
999708400 540
999810775 435
999080319 959
999948016 228
999998236 42
999340656 812
999739900 510
999533511 683
999995376 68
999670524 574
999845551 393
999487344 716
999710556 538
999272391 853
999968671 177
999997975 45
999019900 990
999856359 379
999840000 400
999614359 621
999553776 668
999885756 338
999935484 254
999967239 181
999985116 122
999339031 813
999942879 239
999011964 994
999860871 373
999671671 573
999902656 312
999953344 216
999964279 189
999377479 789
999202551 893
999461244 734
999984871 123
999976284 154
999921600 280
999949375 225
999868231 363
999852544 384
999211456 888
999994671 73
999982044 134
999695296 552
999702975 545
999998775 35
999437500 750
999851004 386
999955056 212
999529404 686
999587836 642
999905751 307
999983871 127
999314416 828
999999471 23
999900775 315
999973756 162
999324316 822
999768639 481
999722271 527
999706236 542
999519751 693
999209679 889
999840799 399
999142524 926
999893724 326
999960000 200
999989596 102
999940951 243
999175536 908
999446464 744
999999991 3
999650719 591
999978975 145
999275799 851
999858624 376
999823600 420
999984124 126
999611871 623
999358399 801
999830256 412
999730639 519
999929775 265
999263836 858
999762831 487
999003996 998
999815959 429
999432991 753
999754975 495
999386911 783
999794791 453
999998976 32
999274096 852
999963519 191
999485911 717
999552439 669
999972444 166
999626679 611
999218544 884
999947559 229
999064911 967
999976591 153
999696399 551
999772471 477
999563079 661
999758919 491
999082236 958
999994071 77
999190000 900
999750999 499
999945711 233
999959599 201
999792064 456
999765744 484
999743964 506
999397824 776
999560431 663
999948924 226
999952039 219
999831079 411
999998479 39
999847900 390
999620544 616
999978391 147
999350364 806
999583975 645
999767676 482
999258679 861
999798399 449
999526656 688
999213231 887
999899511 317
999505791 703
999144375 925
999910599 299
999906975 305
999665916 578
999992079 89
999970416 172
999490204 714
999838396 402
999641199 599
999857116 378
999086064 956
999413244 766
999848679 389
999911791 297
999402471 773
999915900 290
999987900 110
999047424 976
999904519 309
999705151 543
999619311 617
999986076 118
999382204 786
999998556 38
999815100 430
999988336 108
999481600 720
999871836 358
999832719 409
999001999 999
999921039 281
999795696 452
999983100 130
999809904 436
999976896 152
999601839 631
999685279 561
999330876 818
999781911 467
999946639 231
999299431 837
999999984 4
999860124 374
999325959 821
999101296 948
999267264 856
999993916 78
999980119 141
999304444 834
999849456 388
999438999 749
999863100 370
999987231 113
999467100 730
999827775 415
999459775 735
999998704 36
999999744 16
999640000 600
999999159 29
999789319 459
999760879 489
999440496 748
999112636 942
999757936 492
999818524 426
999873975 355
999062976 968
999926559 271
999844764 394
999385344 784
999282591 847
999207900 890
999924375 275
999779100 470
999771516 478
999277500 850
999700791 547
999645975 595
999089884 954
999797500 450
999999271 27
999813376 432
999945244 234
999581391 647
999661276 582
999643591 597
999992431 87
999999639 19
999131376 932
999952476 218
999732711 517
999425436 758
999164604 914
999930831 263
999182784 904
999826944 416
999270684 854
999957564 206
999866775 365
999545724 674
999981775 135
999863839 369
999680775 565
999999600 20
999229116 878
999355191 803
999512796 698
999498736 708
999629119 609
999898876 318
999374319 791
999903279 311
999871119 359
999347136 808
999649536 592
999683031 563
999672816 572
999723324 526
999983616 128
999996864 56
999664759 579
999903900 310
999452400 740
999434496 752
999630336 608
999897600 320
999954204 214
999580096 648
999676239 569
999023856 988
999911196 298
999148071 923
999287664 844
999255231 863
999435999 751
999108864 944
999958384 204
999826111 417
999678511 567
999973431 163
999787479 461
999549759 671
999949824 224
999414775 765
999525279 689
999057159 971
999962364 194
999919344 284
999543024 676
999835164 406
999968316 178
999327600 820
999186396 902
999494479 711
999458304 736
999764775 485
999995644 66
999699696 548
999831900 410
999693084 554
999870400 360
999898239 319
999662439 581
999783775 465
999932400 260
999061039 969
999862359 371
999631551 607
999570975 655
999996636 58
999567036 658
999908796 302
999882351 343
999877500 350
999728559 521
999493056 712
999995904 64
999720159 529
999741936 508
999999775 15
999951159 221
999950716 222
999992944 84
999681904 564
999638799 601
999944775 235
999993759 79
999774375 475
999114519 941
999734775 515
999337404 814
999005991 997
999995100 70
999586551 643
999170079 911
999265551 857
999731676 518
999319375 825
999557775 665
999103191 947
999753984 496
999122031 937
999474375 725
999599311 633
999198975 895
999716976 532
999948471 227
999894375 325
999952911 217
999825276 418
999884400 340
999819375 425
999600576 632
999997791 47
999931879 261
999983359 129
999411711 767
999961584 196
999647164 594
999547071 673
999232624 876
999889111 333
999049375 975
999733744 516
999980679 139
999791151 457
999801084 446
999747996 502
999998064 44
999013951 993
999998911 33
999971439 169
999332511 817
999999804 14
999268975 855
999986311 117
999129511 933
999977799 149
999500151 707
999846336 392
999994524 74
999624231 613
999917056 288
999301104 836
999697500 550
999188199 901
999979836 142
999872551 357
999924924 274
999577500 650
999364791 797
999937500 250
999573591 653
999309439 831
999841596 398
999982311 133
999220311 883
999975664 156
999809031 437
999788400 460
999969724 174
999995775 65
999943831 237
999441991 747
999292719 841
999507196 702
999598044 634
999785631 463
999987004 114
999663600 580
999316071 827
999532144 684
999866044 366
999947100 230
999992256 88
999987456 112
999997191 53
999928176 268
999253504 864
999960796 198
999922159 279
999918775 285
999996279 61
999934975 255
999569664 656
999906364 306
999878199 349
999173719 909
999997500 50
999285975 845
999623004 614
999627900 610
999719100 530
999993276 82
999996751 57
999383775 785
999890439 331
999591679 639
999606871 627
999854076 382
999861616 372
999609375 625
999999900 10
999236124 874
999998400 40
999140671 927
999745984 504
999686400 560
999689751 557
999744975 505
999518364 694
999450919 741
999908191 303
999592956 638
999312759 829
999177351 907
999191799 899
999975351 157
999642396 598
999184591 903
999279199 849
999166431 913
999999936 8
999951600 220
999834351 407
999999999 1
999297756 838
999748999 501
999997599 49
999468559 729
999391600 780
999136959 929
999935991 253
999854839 381
999604359 629
999237871 873
999157276 918
999480159 721
999916479 289
999017919 991
999965031 187
999996400 60
999155439 919
999568351 657
999528031 687
999420879 761
999656604 586
999345519 809
999491631 713
999603100 630
999704064 544
999360000 800
999942400 240
999171900 910
999999375 25
999651900 590
999668224 576
999895024 324
999878896 348
999726471 523
999735804 514
999982576 132
999093696 952
999241359 871
999687519 559
999777216 472
999125775 935
999043516 978
999544375 675
999608124 626
999907584 304
999970071 173
999990784 96
999721216 528
999572284 654
999820224 424
999594231 637
999997696 48
999909399 301
999997296 52
999994959 71
999615600 620
999227359 879
999515584 696
999118279 939
999990975 95
999632764 606
999970759 171
999923271 277
999605616 628
999936496 252
999972111 167
999737856 512
999769600 480
999938496 248
999987679 111
999709479 539
999369564 794
999289351 843
999804636 442
999850231 387
999110751 943
999999831 13
999041559 979
999070704 964
999999964 6
999400924 774
999752991 497
999222076 882
999200764 894
999658944 584
999256956 862
999979264 144
999548416 672
999876096 352
999000000 1000
999087975 955
999455356 738
999523900 690
999971776 168
999690864 556
999039600 980
999966511 183
999470016 728
999873264 356
999375900 790
999805519 441
999504384 704
999910000 300
999891100 330
999718039 531
999746991 503
999644784 596
999914151 293
999371151 793
999135100 930
999302775 835
999984375 125
999712704 536
999855600 380
999475824 724
999956319 209
999714844 534
999724375 525
999051324 974
999428464 756
999353584 804
999677376 568
999105084 946
999556444 666
999742951 507
999936999 251
999821916 422
999206119 891
999462711 733
999055216 972
999784704 464
999613116 622
999990000 100
999667071 577
999917631 287
999817671 427
999886431 337
999990591 97
999913564 294
999625456 612
999180975 905
999865311 367
999127644 934
999673959 571
999988764 106
999793884 454
999932919 259
999250044 866
999996156 62
999578799 649
999015936 992
999654256 588
999711631 537
999390039 781
999066844 966
999694191 553
999675100 570
999009975 995
999477271 723
999883036 342
999037639 981
999993111 83
999896959 321
999736831 513
999501564 706
999120156 938
999988975 105
999999324 26
999095599 951
999915319 291
999582684 646
999999919 9
999106975 945
999938991 247
999879591 347
999031744 984
999889776 332
999388476 782
999919911 283
999989391 103
999979551 143
999559104 664
999980400 140
999698599 549
999929244 266
999363196 798
999230871 877
999679644 566
999291036 842
999843975 395
999887104 336
999151759 921
999511399 699
999759900 490
999688636 558
999361599 799
999950271 223
999484476 718
999021879 989
999243100 870
999900144 316
999902031 313
999123904 936
999715911 533
999116400 940
999786556 462
999248311 867
999589119 641
999755964 494
999975975 155
999727516 522
999901404 314
999655431 587
999847119 391
999408639 769
999497319 709
999958791 203
999888444 334
999981231 137
999851775 385
999306111 833
999905136 308
999980956 138
999996519 59
999966876 182
999864576 368
999027804 986
999939484 246
999941436 242
999875391 353
999940464 244
999967600 180
999965404 186
999959196 202
999534876 682
999999516 22
999416304 764
999999879 11
999068775 965
999881664 344
999937999 249
100
56
48
30
41
31
60
71
13
24
38
94
54
100
49
43
81
69
63
73
46
34
35
19
61
8
92
70
87
9
76
58
26
32
85
11
23
4
95
14
78
36
82
62
50
17
2
42
5
72
16
93
83
91
97
99
22
21
80
29
77
64
45
20
6
67
86
33
44
15
25
10
28
39
7
90
55
98
27
40
84
96
66
51
47
65
53
79
52
88
75
12
1
89
37
57
59
74
3
68
18
